           1           1           1   300.00000   561.24861
           1           1           2   300.00000   561.24861
           1           1           3   300.00000   561.24861
           1           1           4   300.00000   561.24861
           1           1           5   300.00000   561.24861
           1           2           1   300.00000   561.24861
           1           2           2   300.00000   561.24861
           1           2           3   300.00000   561.24861
           1           2           4   300.00000   561.24861
           1           2           5   300.00000   561.24861
           1           3           1   300.00000   561.24861
           1           3           2   300.00000   561.24861
           1           3           3   300.00000   561.24861
           1           3           4   300.00000   561.24861
           1           3           5   300.00000   561.24861
           1           4           1   300.00000   561.24861
           1           4           2   300.00000   561.24861
           1           4           3   300.00000   561.24861
           1           4           4   300.00000   561.24861
           1           4           5   300.00000   561.24861
           1           5           1   300.00000   561.24861
           1           5           2   300.00000   561.24861
           1           5           3   300.00000   561.24861
           1           5           4   300.00000   561.24861
           1           5           5   300.00000   561.24861
           2           1           1   300.00000   561.24861
           2           1           2   300.00000   561.24861
           2           1           3   300.00000   561.24861
           2           1           4   300.00000   561.24861
           2           1           5   300.00000   561.24861
           2           2           1   300.00000   561.24861
           2           2           2   300.00000   561.24861
           2           2           3   300.00000   561.24861
           2           2           4   300.00000   561.24861
           2           2           5   300.00000   561.24861
           2           3           1   300.00000   561.24861
           2           3           2   300.00000   561.24861
           2           3           3   300.00000   561.24861
           2           3           4   300.00000   561.24861
           2           3           5   300.00000   561.24861
           2           4           1   300.00000   561.24861
           2           4           2   300.00000   561.24861
           2           4           3   300.00000   561.24861
           2           4           4   300.00000   561.24861
           2           4           5   300.00000   561.24861
           2           5           1   300.00000   561.24861
           2           5           2   300.00000   561.24861
           2           5           3   300.00000   561.24861
           2           5           4   300.00000   561.24861
           2           5           5   300.00000   561.24861
           3           1           1   300.00000   561.24861
           3           1           2   300.00000   561.24861
           3           1           3   300.00000   561.24861
           3           1           4   300.00000   561.24861
           3           1           5   300.00000   561.24861
           3           2           1   300.00000   561.24861
           3           2           2   300.00000   561.24861
           3           2           3   300.00000   561.24861
           3           2           4   300.00000   561.24861
           3           2           5   300.00000   561.24861
           3           3           1   300.00000   561.24861
           3           3           2   300.00000   561.24861
           3           3           3   300.00000   561.24861
           3           3           4   300.00000   561.24861
           3           3           5   300.00000   561.24861
           3           4           1   300.00000   561.24861
           3           4           2   300.00000   561.24861
           3           4           3   300.00000   561.24861
           3           4           4   300.00000   561.24861
           3           4           5   300.00000   561.24861
           3           5           1   300.00000   561.24861
           3           5           2   300.00000   561.24861
           3           5           3   300.00000   561.24861
           3           5           4   300.00000   561.24861
           3           5           5   300.00000   561.24861
           4           1           1   300.00000   561.24861
           4           1           2   300.00000   561.24861
           4           1           3   300.00000   561.24861
           4           1           4   300.00000   561.24861
           4           1           5   300.00000   561.24861
           4           2           1   300.00000   561.24861
           4           2           2   300.00000   561.24861
           4           2           3   300.00000   561.24861
           4           2           4   300.00000   561.24861
           4           2           5   300.00000   561.24861
           4           3           1   300.00000   561.24861
           4           3           2   300.00000   561.24861
           4           3           3   300.00000   561.24861
           4           3           4   300.00000   561.24861
           4           3           5   300.00000   561.24861
           4           4           1   300.00000   561.24861
           4           4           2   300.00000   561.24861
           4           4           3   300.00000   561.24861
           4           4           4   300.00000   561.24861
           4           4           5   300.00000   561.24861
           4           5           1   300.00000   561.24861
           4           5           2   300.00000   561.24861
           4           5           3   300.00000   561.24861
           4           5           4   300.00000   561.24861
           4           5           5   300.00000   561.24861
           5           1           1   300.00000   561.24861
           5           1           2   300.00000   561.24861
           5           1           3   300.00000   561.24861
           5           1           4   300.00000   561.24861
           5           1           5   300.00000   561.24861
           5           2           1   300.00000   561.24861
           5           2           2   300.00000   561.24861
           5           2           3   300.00000   561.24861
           5           2           4   300.00000   561.24861
           5           2           5   300.00000   561.24861
           5           3           1   300.00000   561.24861
           5           3           2   300.00000   561.24861
           5           3           3   300.00000   561.24861
           5           3           4   300.00000   561.24861
           5           3           5   300.00000   561.24861
           5           4           1   300.00000   561.24861
           5           4           2   300.00000   561.24861
           5           4           3   300.00000   561.24861
           5           4           4   300.00000   561.24861
           5           4           5   300.00000   561.24861
           5           5           1   300.00000   561.24861
           5           5           2   300.00000   561.24861
           5           5           3   300.00000   561.24861
           5           5           4   300.00000   561.24861
           5           5           5   300.00000   561.24861
           6           1           1   300.00000   561.24861
           6           1           2   300.00000   561.24861
           6           1           3   300.00000   561.24861
           6           1           4   300.00000   561.24861
           6           1           5   300.00000   561.24861
           6           2           1   300.00000   561.24861
           6           2           2   300.00000   561.24861
           6           2           3   300.00000   561.24861
           6           2           4   300.00000   561.24861
           6           2           5   300.00000   561.24861
           6           3           1   300.00000   561.24861
           6           3           2   300.00000   561.24861
           6           3           3   300.00000   561.24861
           6           3           4   300.00000   561.24861
           6           3           5   300.00000   561.24861
           6           4           1   300.00000   561.24861
           6           4           2   300.00000   561.24861
           6           4           3   300.00000   561.24861
           6           4           4   300.00000   561.24861
           6           4           5   300.00000   561.24861
           6           5           1   300.00000   561.24861
           6           5           2   300.00000   561.24861
           6           5           3   300.00000   561.24861
           6           5           4   300.00000   561.24861
           6           5           5   300.00000   561.24861
           7           1           1   300.00000   561.24861
           7           1           2   300.00000   561.24861
           7           1           3   300.00000   561.24861
           7           1           4   300.00000   561.24861
           7           1           5   300.00000   561.24861
           7           2           1   300.00000   561.24861
           7           2           2   300.00000   561.24861
           7           2           3   300.00000   561.24861
           7           2           4   300.00000   561.24861
           7           2           5   300.00000   561.24861
           7           3           1   300.00000   561.24861
           7           3           2   300.00000   561.24861
           7           3           3   300.00000   561.24861
           7           3           4   300.00000   561.24861
           7           3           5   300.00000   561.24861
           7           4           1   300.00000   561.24861
           7           4           2   300.00000   561.24861
           7           4           3   300.00000   561.24861
           7           4           4   300.00000   561.24861
           7           4           5   300.00000   561.24861
           7           5           1   300.00000   561.24861
           7           5           2   300.00000   561.24861
           7           5           3   300.00000   561.24861
           7           5           4   300.00000   561.24861
           7           5           5   300.00000   561.24861
           8           1           1   300.00000   561.24861
           8           1           2   300.00000   561.24861
           8           1           3   300.00000   561.24861
           8           1           4   300.00000   561.24861
           8           1           5   300.00000   561.24861
           8           2           1   300.00000   561.24861
           8           2           2   300.00000   561.24861
           8           2           3   300.00000   561.24861
           8           2           4   300.00000   561.24861
           8           2           5   300.00000   561.24861
           8           3           1   300.00000   561.24861
           8           3           2   300.00000   561.24861
           8           3           3   300.00000   561.24861
           8           3           4   300.00000   561.24861
           8           3           5   300.00000   561.24861
           8           4           1   300.00000   561.24861
           8           4           2   300.00000   561.24861
           8           4           3   300.00000   561.24861
           8           4           4   300.00000   561.24861
           8           4           5   300.00000   561.24861
           8           5           1   300.00000   561.24861
           8           5           2   300.00000   561.24861
           8           5           3   300.00000   561.24861
           8           5           4   300.00000   561.24861
           8           5           5   300.00000   561.24861
           9           1           1   300.00000   561.24861
           9           1           2   300.00000   561.24861
           9           1           3   300.00000   561.24861
           9           1           4   300.00000   561.24861
           9           1           5   300.00000   561.24861
           9           2           1   300.00000   561.24861
           9           2           2   300.00000   561.24861
           9           2           3   300.00000   561.24861
           9           2           4   300.00000   561.24861
           9           2           5   300.00000   561.24861
           9           3           1   300.00000   561.24861
           9           3           2   300.00000   561.24861
           9           3           3   300.00000   561.24861
           9           3           4   300.00000   561.24861
           9           3           5   300.00000   561.24861
           9           4           1   300.00000   561.24861
           9           4           2   300.00000   561.24861
           9           4           3   300.00000   561.24861
           9           4           4   300.00000   561.24861
           9           4           5   300.00000   561.24861
           9           5           1   300.00000   561.24861
           9           5           2   300.00000   561.24861
           9           5           3   300.00000   561.24861
           9           5           4   300.00000   561.24861
           9           5           5   300.00000   561.24861
          10           1           1   300.00000   561.24861
          10           1           2   300.00000   561.24861
          10           1           3   300.00000   561.24861
          10           1           4   300.00000   561.24861
          10           1           5   300.00000   561.24861
          10           2           1   300.00000   561.24861
          10           2           2   300.00000   561.24861
          10           2           3   300.00000   561.24861
          10           2           4   300.00000   561.24861
          10           2           5   300.00000   561.24861
          10           3           1   300.00000   561.24861
          10           3           2   300.00000   561.24861
          10           3           3   300.00000   561.24861
          10           3           4   300.00000   561.24861
          10           3           5   300.00000   561.24861
          10           4           1   300.00000   561.24861
          10           4           2   300.00000   561.24861
          10           4           3   300.00000   561.24861
          10           4           4   300.00000   561.24861
          10           4           5   300.00000   561.24861
          10           5           1   300.00000   561.24861
          10           5           2   300.00000   561.24861
          10           5           3   300.00000   561.24861
          10           5           4   300.00000   561.24861
          10           5           5   300.00000   561.24861
          11           1           1   300.00000   561.24861
          11           1           2   300.00000   561.24861
          11           1           3   300.00000   561.24861
          11           1           4   300.00000   561.24861
          11           1           5   300.00000   561.24861
          11           2           1   300.00000   561.24861
          11           2           2   300.00000   561.24861
          11           2           3   300.00000   561.24861
          11           2           4   300.00000   561.24861
          11           2           5   300.00000   561.24861
          11           3           1   300.00000   561.24861
          11           3           2   300.00000   561.24861
          11           3           3   300.00000   561.24861
          11           3           4   300.00000   561.24861
          11           3           5   300.00000   561.24861
          11           4           1   300.00000   561.24861
          11           4           2   300.00000   561.24861
          11           4           3   300.00000   561.24861
          11           4           4   300.00000   561.24861
          11           4           5   300.00000   561.24861
          11           5           1   300.00000   561.24861
          11           5           2   300.00000   561.24861
          11           5           3   300.00000   561.24861
          11           5           4   300.00000   561.24861
          11           5           5   300.00000   561.24861
          12           1           1   300.00000   561.24861
          12           1           2   300.00000   561.24861
          12           1           3   300.00000   561.24861
          12           1           4   300.00000   561.24861
          12           1           5   300.00000   561.24861
          12           2           1   300.00000   561.24861
          12           2           2   300.00000   561.24861
          12           2           3   300.00000   561.24861
          12           2           4   300.00000   561.24861
          12           2           5   300.00000   561.24861
          12           3           1   300.00000   561.24861
          12           3           2   300.00000   561.24861
          12           3           3   300.00000   561.24861
          12           3           4   300.00000   561.24861
          12           3           5   300.00000   561.24861
          12           4           1   300.00000   561.24861
          12           4           2   300.00000   561.24861
          12           4           3   300.00000   561.24861
          12           4           4   300.00000   561.24861
          12           4           5   300.00000   561.24861
          12           5           1   300.00000   561.24861
          12           5           2   300.00000   561.24861
          12           5           3   300.00000   561.24861
          12           5           4   300.00000   561.24861
          12           5           5   300.00000   561.24861
          13           1           1   196.36162   367.35895
          13           1           2   200.31250   374.75037
          13           1           3   288.14629   539.07236
          13           1           4   358.69328   671.05368
          13           1           5   367.54884   687.62092
          13           2           1   196.79916   368.17752
          13           2           2   198.31268   371.00905
          13           2           3   286.00237   535.06143
          13           2           4   358.07557   669.89805
          13           2           5   364.70811   682.30639
          13           3           1   193.67683   362.33618
          13           3           2   196.60444   367.81323
          13           3           3   283.72287   530.79689
          13           3           4   355.22342   664.56217
          13           3           5   360.81870   675.02997
          13           4           1   188.41482   352.49186
          13           4           2   193.12019   361.29480
          13           4           3   281.30065   526.26533
          13           4           4   352.38288   659.24801
          13           4           5   357.57048   668.95312
          13           5           1   184.11883   344.45479
          13           5           2   189.84428   355.16613
          13           5           3   278.50771   521.04021
          13           5           4   351.03706   656.73021
          13           5           5   356.13471   666.26704
          14           1           1   184.11883   344.45479
          14           1           2   189.84428   355.16613
          14           1           3   278.50771   521.04021
          14           1           4   351.03706   656.73021
          14           1           5   356.13471   666.26704
          14           2           1   179.82284   336.41772
          14           2           2   186.56637   349.03371
          14           2           3   275.71476   515.81509
          14           2           4   350.01305   654.81445
          14           2           5   354.69894   663.58095
          14           3           1   173.48795   324.56623
          14           3           2   181.48962   339.53599
          14           3           3   271.08336   507.15053
          14           3           4   346.95593   649.09510
          14           3           5   353.09074   660.57228
          14           4           1   169.00192   316.17364
          14           4           2   177.90802   332.83543
          14           4           3   267.84668   501.09526
          14           4           4   342.74715   641.22120
          14           4           5   352.99806   660.39891
          14           5           1   169.74824   317.56988
          14           5           2   175.48616   328.30453
          14           5           3   267.08699   499.67400
          14           5           4   338.25915   632.82493
          14           5           5   353.80534   661.90918
          15           1           1   169.74824   317.56988
          15           1           2   175.48616   328.30453
          15           1           3   267.08699   499.67400
          15           1           4   338.25915   632.82493
          15           1           5   353.80534   661.90918
          15           2           1   170.49456   318.96612
          15           2           2   171.35853   320.58246
          15           2           3   266.32729   498.25274
          15           2           4   333.77116   624.42866
          15           2           5   354.61262   663.41946
          15           3           1   169.45513   317.02153
          15           3           2   165.99944   310.55651
          15           3           3   263.78572   493.49789
          15           3           4   329.69716   616.80691
          15           3           5   354.39591   663.01404
          15           4           1   167.74832   313.82837
          15           4           2   162.02331   303.11786
          15           4           3   260.80878   487.92855
          15           4           4   325.73114   609.38716
          15           4           5   353.68592   661.68577
          15           5           1   169.07091   316.30271
          15           5           2   162.17950   303.41006
          15           5           3   258.88279   484.32535
          15           5           4   324.65113   607.36665
          15           5           5   352.80485   660.03745
          16           1           1   169.07091   316.30271
          16           1           2   162.17950   303.41006
          16           1           3   258.88279   484.32535
          16           1           4   324.65113   607.36665
          16           1           5   352.80485   660.03745
          16           2           1   170.39350   318.77706
          16           2           2   162.60735   304.21049
          16           2           3   256.95680   480.72216
          16           2           4   322.94652   604.17761
          16           2           5   351.85018   658.25142
          16           3           1   173.54610   324.67503
          16           3           2   164.72292   308.16836
          16           3           3   255.23508   477.50111
          16           3           4   322.41447   603.18225
          16           3           5   350.14931   655.06938
          16           4           1   176.25433   329.74167
          16           4           2   163.23631   305.38718
          16           4           3   253.45264   474.16646
          16           4           4   323.57246   605.34865
          16           4           5   349.15816   653.21510
          16           5           1   173.29510   324.20545
          16           5           2   163.22787   305.37138
          16           5           3   253.49806   474.25145
          16           5           4   323.38985   605.00701
          16           5           5   347.94545   650.94634
          17           1           1   173.29510   324.20545
          17           1           2   163.22787   305.37138
          17           1           3   253.49806   474.25145
          17           1           4   323.38985   605.00701
          17           1           5   347.94545   650.94634
          17           2           1   170.33587   318.66923
          17           2           2   165.57690   309.76601
          17           2           3   253.54349   474.33643
          17           2           4   323.29355   604.82685
          17           2           5   346.60797   648.44413
          17           3           1   165.74956   310.08904
          17           3           2   168.25479   314.77589
          17           3           3   253.67662   474.58551
          17           3           4   322.42929   603.20998
          17           3           5   344.98847   645.41432
          17           4           1   161.88802   302.86476
          17           4           2   167.58750   313.52751
          17           4           3   253.31552   473.90994
          17           4           4   320.44346   599.49481
          17           4           5   343.84555   643.27611
          17           5           1   160.25209   299.80421
          17           5           2   166.13327   310.80689
          17           5           3   251.05883   469.68806
          17           5           4   318.99225   596.77986
          17           5           5   343.16682   642.00634
          18           1           1   160.25209   299.80421
          18           1           2   166.13327   310.80689
          18           1           3   251.05883   469.68806
          18           1           4   318.99225   596.77986
          18           1           5   343.16682   642.00634
          18           2           1   158.61616   296.74366
          18           2           2   164.84531   308.39733
          18           2           3   248.80214   465.46618
          18           2           4   317.54105   594.06491
          18           2           5   342.48810   640.73656
          18           3           1   157.16875   294.03582
          18           3           2   163.11097   305.15269
          18           3           3   248.43247   464.77459
          18           3           4   316.99560   593.04447
          18           3           5   340.88822   637.74346
          18           4           1   157.00584   293.73102
          18           4           2   161.99142   303.05820
          18           4           3   249.26726   466.33635
          18           4           4   315.79523   590.79877
          18           4           5   338.53470   633.34042
          18           5           1   157.68098   294.99410
          18           5           2   164.74176   308.20360
          18           5           3   248.60486   465.09711
          18           5           4   314.94004   589.19887
          18           5           5   338.72528   633.69698
          19           1           1   157.68098   294.99410
          19           1           2   164.74176   308.20360
          19           1           3   248.60486   465.09711
          19           1           4   314.94004   589.19887
          19           1           5   338.72528   633.69698
          19           2           1   158.35612   296.25717
          19           2           2   167.49209   313.34901
          19           2           3   247.94246   463.85787
          19           2           4   314.47384   588.32668
          19           2           5   339.36567   634.89504
          19           3           1   158.72767   296.95229
          19           3           2   169.43907   316.99147
          19           3           3   245.17029   458.67161
          19           3           4   312.52643   584.68341
          19           3           5   338.44558   633.17370
          19           4           1   158.32563   296.20013
          19           4           2   175.49896   328.32850
          19           4           3   239.60162   448.25359
          19           4           4   310.39629   580.69828
          19           4           5   335.59871   627.84770
          19           5           1   159.97422   299.28435
          19           5           2   177.33816   331.76932
          19           5           3   239.43306   447.93824
          19           5           4   310.37974   580.66732
          19           5           5   333.35421   623.64861
          20           1           1   159.97422   299.28435
          20           1           2   177.33816   331.76932
          20           1           3   239.43306   447.93824
          20           1           4   310.37974   580.66732
          20           1           5   333.35421   623.64861
          20           2           1   161.63316   302.38796
          20           2           2   180.89026   338.41469
          20           2           3   239.27992   447.65174
          20           2           4   308.76902   577.65394
          20           2           5   329.65243   616.72323
          20           3           1   168.99736   316.16511
          20           3           2   187.75976   351.26635
          20           3           3   242.29249   453.28774
          20           3           4   307.04391   574.42656
          20           3           5   323.84578   605.85999
          20           4           1   180.42892   337.55160
          20           4           2   196.26725   367.18240
          20           4           3   247.84486   463.67528
          20           4           4   306.92621   574.20637
          20           4           5   319.86313   598.40912
          20           5           1   186.55817   349.01837
          20           5           2   203.59375   380.88904
          20           5           3   253.54730   474.34356
          20           5           4   306.01671   572.50483
          20           5           5   321.72346   601.88949
          21           1           1   186.55817   349.01837
          21           1           2   203.59375   380.88904
          21           1           3   253.54730   474.34356
          21           1           4   306.01671   572.50483
          21           1           5   321.72346   601.88949
          21           2           1   192.69417   360.49779
          21           2           2   208.00475   389.14126
          21           2           3   259.68546   485.82701
          21           2           4   305.01566   570.63206
          21           2           5   323.68176   605.55313
          21           3           1   203.81364   381.30040
          21           3           2   218.56411   408.89601
          21           3           3   268.58711   502.48047
          21           3           4   302.88115   566.63874
          21           3           5   324.28400   606.67981
          21           4           1   214.37444   401.05785
          21           4           2   231.47952   433.05852
          21           4           3   274.51607   513.57253
          21           4           4   303.21537   567.26401
          21           4           5   323.01666   604.30883
          21           5           1   222.35807   415.99386
          21           5           2   236.51782   442.48433
          21           5           3   277.14244   518.48602
          21           5           4   303.28106   567.38691
          21           5           5   321.43396   601.34788
          22           1           1   222.35807   415.99386
          22           1           2   236.51782   442.48433
          22           1           3   277.14244   518.48602
          22           1           4   303.28106   567.38691
          22           1           5   321.43396   601.34788
          22           2           1   230.67860   431.56014
          22           2           2   243.44243   455.43909
          22           2           3   279.70711   523.28409
          22           2           4   305.75027   572.00638
          22           2           5   319.85358   598.39126
          22           3           1   243.77441   456.06016
          22           3           2   254.36516   475.87365
          22           3           3   286.64379   536.26143
          22           3           4   309.82350   579.62669
          22           3           5   316.61389   592.33034
          22           4           1   253.56459   474.37592
          22           4           2   263.36354   492.70807
          22           4           3   296.42428   554.55905
          22           4           4   312.25422   584.17415
          22           4           5   313.21231   585.96658
          22           5           1   257.16287   481.10768
          22           5           2   267.88610   501.16899
          22           5           3   300.67139   562.50466
          22           5           4   314.42614   588.23745
          22           5           5   312.66600   584.94452
          23           1           1   257.16287   481.10768
          23           1           2   267.88610   501.16899
          23           1           3   300.67139   562.50466
          23           1           4   314.42614   588.23745
          23           1           5   312.66600   584.94452
          23           2           1   260.41493   487.19172
          23           2           2   270.45192   505.96922
          23           2           3   304.71682   570.07296
          23           2           4   317.21488   593.45470
          23           2           5   311.56790   582.89018
          23           3           1   263.11509   492.24327
          23           3           2   274.50256   513.54727
          23           3           3   312.49373   584.62224
          23           3           4   319.47469   597.68241
          23           3           5   308.98791   578.06345
          23           4           1   260.96348   488.21797
          23           4           2   279.33705   522.59177
          23           4           3   321.09970   600.72253
          23           4           4   323.43558   605.09255
          23           4           5   305.79872   572.09702
          23           5           1   259.99258   486.40157
          23           5           2   281.56210   526.75445
          23           5           3   324.37205   606.84453
          23           5           4   324.55917   607.19461
          23           5           5   306.04281   572.55367
          24           1           1   259.99258   486.40157
          24           1           2   281.56210   526.75445
          24           1           3   324.37205   606.84453
          24           1           4   324.55917   607.19461
          24           1           5   306.04281   572.55367
          24           2           1   259.07336   484.68188
          24           2           2   284.38393   532.03362
          24           2           3   327.98328   613.60054
          24           2           4   325.37854   608.72752
          24           2           5   306.38061   573.18563
          24           3           1   259.31426   485.13255
          24           3           2   290.09868   542.72493
          24           3           3   334.70562   626.17687
          24           3           4   327.98527   613.60425
          24           3           5   309.04605   578.17221
          24           4           1   262.71355   491.49205
          24           4           2   294.89586   551.69963
          24           4           3   340.99871   637.95017
          24           4           4   328.48217   614.53387
          24           4           5   311.06176   581.94326
          24           5           1   266.11779   497.86079
          24           5           2   296.78286   555.22989
          24           5           3   345.96362   647.23866
          24           5           4   330.27238   617.88305
          24           5           5   312.96856   585.51056
          25           1           1   266.11779   497.86079
          25           1           2   296.78286   555.22989
          25           1           3   345.96362   647.23866
          25           1           4   330.27238   617.88305
          25           1           5   312.96856   585.51056
          25           2           1   270.20599   505.50912
          25           2           2   299.10019   559.56522
          25           2           3   351.44225   657.48825
          25           2           4   331.72440   620.59953
          25           2           5   315.23345   589.74779
          25           3           1   277.34135   518.85815
          25           3           2   302.24344   565.44569
          25           3           3   361.21700   675.77513
          25           3           4   334.56661   625.91681
          25           3           5   319.24725   597.25691
          25           4           1   283.35976   530.11758
          25           4           2   305.78631   572.07379
          25           4           3   369.88141   691.98476
          25           4           4   341.10692   638.15261
          25           4           5   323.96542   606.08381
          25           5           1   286.36683   535.74328
          25           5           2   307.49999   575.27981
          25           5           3   374.07047   699.82177
          25           5           4   343.15658   641.98718
          25           5           5   323.90059   605.96252
          26           1           1   286.36683   535.74328
          26           1           2   307.49999   575.27981
          26           1           3   374.07047   699.82177
          26           1           4   343.15658   641.98718
          26           1           5   323.90059   605.96252
          26           2           1   289.28092   541.19505
          26           2           2   308.32704   576.82707
          26           2           3   378.00566   707.18383
          26           2           4   344.43028   644.37005
          26           2           5   322.76960   603.84663
          26           3           1   293.45337   549.00098
          26           3           2   310.25231   580.42892
          26           3           3   385.80086   721.76733
          26           3           4   343.31324   642.28026
          26           3           5   322.19827   602.77778
          26           4           1   294.80601   551.53153
          26           4           2   309.34194   578.72578
          26           4           3   394.30303   737.67343
          26           4           4   339.27361   634.72280
          26           4           5   324.90782   607.84687
          26           5           1   297.10602   555.83447
          26           5           2   310.18457   580.30219
          26           5           3   395.49496   739.90331
          26           5           4   338.60133   633.46508
          26           5           5   323.05097   604.37303
          27           1           1   297.10602   555.83447
          27           1           2   310.18457   580.30219
          27           1           3   395.49496   739.90331
          27           1           4   338.60133   633.46508
          27           1           5   323.05097   604.37303
          27           2           1   300.53158   562.24310
          27           2           2   313.10507   585.76594
          27           2           3   395.76603   740.41045
          27           2           4   338.61772   633.49574
          27           2           5   320.39884   599.41134
          27           3           1   306.90943   574.17496
          27           3           2   318.93722   596.67690
          27           3           3   394.92589   738.83870
          27           3           4   338.94187   634.10217
          27           3           5   316.70724   592.50499
          27           4           1   313.00809   585.58451
          27           4           2   323.66338   605.51874
          27           4           3   390.82114   731.15940
          27           4           4   341.35396   638.61479
          27           4           5   313.27352   586.08109
          27           5           1   314.56268   588.49290
          27           5           2   326.60014   611.01291
          27           5           3   388.08523   726.04099
          27           5           4   342.15004   640.10412
          27           5           5   314.24998   587.90789
          28           1           1   314.56268   588.49290
          28           1           2   326.60014   611.01291
          28           1           3   388.08523   726.04099
          28           1           4   342.15004   640.10412
          28           1           5   314.24998   587.90789
          28           2           1   314.62193   588.60374
          28           2           2   329.34685   616.15153
          28           2           3   384.40274   719.15167
          28           2           4   344.81689   645.09333
          28           2           5   319.41973   597.57960
          28           3           1   314.23191   587.87407
          28           3           2   332.64615   622.32397
          28           3           3   377.70953   706.62982
          28           3           4   349.43517   653.73334
          28           3           5   328.28508   614.16514
          28           4           1   312.42911   584.50134
          28           4           2   334.14149   625.12149
          28           4           3   368.31214   689.04893
          28           4           4   352.80915   660.04549
          28           4           5   334.52179   625.83296
          28           5           1   311.05943   581.93891
          28           5           2   334.85950   626.46476
          28           5           3   364.36473   681.66399
          28           5           4   356.78043   667.47507
          28           5           5   337.81659   631.99697
          29           1           1   311.05943   581.93891
          29           1           2   334.85950   626.46476
          29           1           3   364.36473   681.66399
          29           1           4   356.78043   667.47507
          29           1           5   337.81659   631.99697
          29           2           1   309.21382   578.48609
          29           2           2   333.96760   624.79617
          29           2           3   361.56545   676.42702
          29           2           4   357.86343   669.50117
          29           2           5   339.03237   634.27148
          29           3           1   306.26960   572.97796
          29           3           2   332.12752   621.35370
          29           3           3   356.96621   667.82263
          29           3           4   358.25618   670.23594
          29           3           5   340.65949   637.31555
          29           4           1   305.16641   570.91407
          29           4           2   336.10948   628.80326
          29           4           3   351.49175   657.58085
          29           4           4   354.39774   663.01746
          29           4           5   340.03665   636.15032
          29           5           1   305.09579   570.78196
          29           5           2   338.38899   633.06783
          29           5           3   347.87111   650.80725
          29           5           4   353.50085   661.33953
          29           5           5   340.16294   636.38659
          30           1           1   305.09579   570.78196
          30           1           2   338.38899   633.06783
          30           1           3   347.87111   650.80725
          30           1           4   353.50085   661.33953
          30           1           5   340.16294   636.38659
          30           2           1   305.76258   572.02941
          30           2           2   339.77549   635.66173
          30           2           3   343.19382   642.05685
          30           2           4   349.73801   654.29991
          30           2           5   339.79850   635.70479
          30           3           1   306.64094   573.67267
          30           3           2   338.97144   634.15750
          30           3           3   334.77824   626.31274
          30           3           4   344.42103   644.35274
          30           3           5   338.25392   632.81513
          30           4           1   305.98234   572.44054
          30           4           2   336.09619   628.77839
          30           4           3   324.23406   606.58638
          30           4           4   338.26158   632.82948
          30           4           5   337.75548   631.88263
          30           5           1   305.84265   572.17920
          30           5           2   335.30911   627.30591
          30           5           3   318.99250   596.78031
          30           5           4   335.50103   627.66496
          30           5           5   338.14929   632.61939
          31           1           1   305.84265   572.17920
          31           1           2   335.30911   627.30591
          31           1           3   318.99250   596.78031
          31           1           4   335.50103   627.66496
          31           1           5   338.14929   632.61939
          31           2           1   306.08708   572.63650
          31           2           2   334.76738   626.29241
          31           2           3   314.34405   588.08386
          31           2           4   333.89941   624.66861
          31           2           5   339.75750   635.62808
          31           3           1   306.94257   574.23697
          31           3           2   331.45556   620.09658
          31           3           3   306.05711   572.58043
          31           3           4   331.62281   620.40947
          31           3           5   341.77600   639.40435
          31           4           1   309.71628   579.42611
          31           4           2   332.03599   621.18246
          31           4           3   300.23764   561.69318
          31           4           4   329.09250   615.67570
          31           4           5   342.20382   640.20473
          31           5           1   310.99387   581.81625
          31           5           2   332.21991   621.52653
          31           5           3   297.38571   556.35772
          31           5           4   327.10131   611.95052
          31           5           5   340.98165   637.91825
          32           1           1   310.99387   581.81625
          32           1           2   332.21991   621.52653
          32           1           3   297.38571   556.35772
          32           1           4   327.10131   611.95052
          32           1           5   340.98165   637.91825
          32           2           1   311.82247   583.36642
          32           2           2   331.91980   620.96508
          32           2           3   295.69713   553.19868
          32           2           4   323.96555   606.08404
          32           2           5   336.94287   630.36239
          32           3           1   313.40369   586.32462
          32           3           2   331.78248   620.70818
          32           3           3   292.53626   547.28523
          32           3           4   317.83987   594.62395
          32           3           5   329.88209   617.15288
          32           4           1   315.05003   589.40463
          32           4           2   333.46908   623.86353
          32           4           3   288.15277   539.08448
          32           4           4   312.41082   584.46713
          32           4           5   326.51291   610.84973
          32           5           1   316.20575   591.56679
          32           5           2   334.25965   625.34255
          32           5           3   286.62836   536.23257
          32           5           4   309.64941   579.30101
          32           5           5   324.17245   606.47113
          33           1           1   316.20575   591.56679
          33           1           2   334.25965   625.34255
          33           1           3   286.62836   536.23257
          33           1           4   309.64941   579.30101
          33           1           5   324.17245   606.47113
          33           2           1   318.30181   595.48817
          33           2           2   333.28468   623.51853
          33           2           3   287.51628   537.89371
          33           2           4   309.99368   579.94506
          33           2           5   322.79960   603.90276
          33           3           1   321.95570   602.32397
          33           3           2   332.36671   621.80118
          33           3           3   288.97453   540.62185
          33           3           4   310.17907   580.29191
          33           3           5   320.96867   600.47740
          33           4           1   322.97097   604.22337
          33           4           2   333.37918   623.69534
          33           4           3   288.71341   540.13334
          33           4           4   312.96402   585.50207
          33           4           5   325.51033   608.97406
          33           5           1   323.88545   605.93420
          33           5           2   332.63417   622.30155
          33           5           3   288.63248   539.98193
          33           5           4   314.78575   588.91021
          33           5           5   328.43315   614.44217
          34           1           1   323.88545   605.93420
          34           1           2   332.63417   622.30155
          34           1           3   288.63248   539.98193
          34           1           4   314.78575   588.91021
          34           1           5   328.43315   614.44217
          34           2           1   326.58006   610.97535
          34           2           2   335.02924   626.78231
          34           2           3   288.81850   540.32993
          34           2           4   317.12314   593.28306
          34           2           5   331.34155   619.88328
          34           3           1   331.58902   620.34624
          34           3           2   336.76566   630.03085
          34           3           3   289.39168   541.40226
          34           3           4   318.65577   596.15036
          34           3           5   336.12565   628.83352
          34           4           1   335.41294   627.50015
          34           4           2   339.41843   634.99373
          34           4           3   297.14857   555.91407
          34           4           4   322.97868   604.23779
          34           4           5   339.18927   634.56503
          34           5           1   337.22502   630.89025
          34           5           2   342.27498   640.33785
          34           5           3   300.93211   562.99243
          34           5           4   325.64536   609.22667
          34           5           5   341.02372   637.99696
          35           1           1   337.22502   630.89025
          35           1           2   342.27498   640.33785
          35           1           3   300.93211   562.99243
          35           1           4   325.64536   609.22667
          35           1           5   341.02372   637.99696
          35           2           1   337.48893   631.38398
          35           2           2   342.51153   640.78041
          35           2           3   304.33216   569.35333
          35           2           4   328.50316   614.57313
          35           2           5   344.10255   643.75693
          35           3           1   338.29745   632.89657
          35           3           2   346.52869   648.29582
          35           3           3   310.88245   581.60780
          35           3           4   333.65536   624.21201
          35           3           5   349.59180   654.02637
          35           4           1   345.45666   646.29023
          35           4           2   350.27114   655.29729
          35           4           3   313.24045   586.01922
          35           4           4   338.68278   633.61746
          35           4           5   349.59582   654.03390
          35           5           1   349.08278   653.07408
          35           5           2   351.02966   656.71637
          35           5           3   314.36774   588.12818
          35           5           4   340.50243   637.02172
          35           5           5   349.50069   653.85592
          36           1           1   349.08278   653.07408
          36           1           2   351.02966   656.71637
          36           1           3   314.36774   588.12818
          36           1           4   340.50243   637.02172
          36           1           5   349.50069   653.85592
          36           2           1   350.28601   655.32511
          36           2           2   351.42732   657.46031
          36           2           3   314.71789   588.78326
          36           2           4   342.20905   640.21450
          36           2           5   348.62320   652.21428
          36           3           1   352.49521   659.45815
          36           3           2   351.74708   658.05854
          36           3           3   315.18320   589.65378
          36           3           4   346.85564   648.90748
          36           3           5   345.96625   647.24359
          36           4           1   350.13040   655.03401
          36           4           2   349.10097   653.10811
          36           4           3   321.73809   601.91685
          36           4           4   350.45804   655.64696
          36           4           5   347.16388   649.48414
          36           5           1   348.88291   652.70016
          36           5           2   346.87953   648.95218
          36           5           3   325.41690   608.79927
          36           5           4   352.53503   659.53264
          36           5           5   348.03290   651.10993
          37           1           1   367.54884   687.62092
          37           1           2   400.97143   750.14886
          37           1           3   423.76287   792.78774
          37           1           4   391.62584   732.66486
          37           1           5   372.63437   697.13508
          37           2           1   364.70811   682.30639
          37           2           2   398.32592   745.19955
          37           2           3   419.52226   784.85428
          37           2           4   388.48178   726.78287
          37           2           5   372.12229   696.17705
          37           3           1   360.81870   675.02997
          37           3           2   391.25322   731.96775
          37           3           3   417.08223   780.28941
          37           3           4   387.91871   725.72945
          37           3           5   368.63233   689.64793
          37           4           1   357.57048   668.95312
          37           4           2   384.96023   720.19464
          37           4           3   415.84123   777.96770
          37           4           4   388.04275   725.96151
          37           4           5   365.95954   684.64760
          37           5           1   356.13471   666.26704
          37           5           2   383.76484   717.95827
          37           5           3   416.15782   778.55998
          37           5           4   388.23847   726.32768
          37           5           5   362.44502   678.07254
          38           1           1   356.13471   666.26704
          38           1           2   383.76484   717.95827
          38           1           3   416.15782   778.55998
          38           1           4   388.23847   726.32768
          38           1           5   362.44502   678.07254
          38           2           1   354.69894   663.58095
          38           2           2   381.01861   712.82055
          38           2           3   416.50222   779.20430
          38           2           4   388.43420   726.69384
          38           2           5   358.45768   670.61291
          38           3           1   353.09074   660.57228
          38           3           2   377.71795   706.64557
          38           3           3   414.90230   776.21113
          38           3           4   385.59906   721.38978
          38           3           5   354.12822   662.51324
          38           4           1   352.99806   660.39891
          38           4           2   375.84845   703.14807
          38           4           3   414.25860   775.00687
          38           4           4   382.27362   715.16845
          38           4           5   352.64917   659.74618
          38           5           1   353.80534   661.90918
          38           5           2   375.87849   703.20426
          38           5           3   414.81604   776.04976
          38           5           4   381.64153   713.98592
          38           5           5   351.46724   657.53499
          39           1           1   353.80534   661.90918
          39           1           2   375.87849   703.20426
          39           1           3   414.81604   776.04976
          39           1           4   381.64153   713.98592
          39           1           5   351.46724   657.53499
          39           2           1   354.61262   663.41946
          39           2           2   374.77581   701.14133
          39           2           3   415.37349   777.09264
          39           2           4   381.00943   712.80338
          39           2           5   350.28531   655.32381
          39           3           1   354.39591   663.01404
          39           3           2   370.42561   693.00287
          39           3           3   412.87870   772.42531
          39           3           4   382.13623   714.91143
          39           3           5   346.97748   649.13543
          39           4           1   353.68592   661.68577
          39           4           2   368.31179   689.04826
          39           4           3   410.72533   768.39673
          39           4           4   382.48115   715.55671
          39           4           5   345.47207   646.31907
          39           5           1   352.80485   660.03745
          39           5           2   366.60114   685.84794
          39           5           3   411.75663   770.32612
          39           5           4   383.48473   717.43424
          39           5           5   341.70692   639.27511
          40           1           1   352.80485   660.03745
          40           1           2   366.60114   685.84794
          40           1           3   411.75663   770.32612
          40           1           4   383.48473   717.43424
          40           1           5   341.70692   639.27511
          40           2           1   351.85018   658.25142
          40           2           2   364.85399   682.57931
          40           2           3   412.78794   772.25551
          40           2           4   384.61872   719.55573
          40           2           5   337.21482   630.87115
          40           3           1   350.14931   655.06938
          40           3           2   362.34922   677.89331
          40           3           3   412.98064   772.61604
          40           3           4   383.74687   717.92465
          40           3           5   330.62530   618.54329
          40           4           1   349.15816   653.21510
          40           4           2   361.63615   676.55928
          40           4           3   411.98055   770.74503
          40           4           4   381.22423   713.20523
          40           4           5   323.80005   605.77443
          40           5           1   347.94545   650.94634
          40           5           2   362.72310   678.59278
          40           5           3   412.00289   770.78682
          40           5           4   379.44801   709.88223
          40           5           5   324.08871   606.31447
          41           1           1   347.94545   650.94634
          41           1           2   362.72310   678.59278
          41           1           3   412.00289   770.78682
          41           1           4   379.44801   709.88223
          41           1           5   324.08871   606.31447
          41           2           1   346.60797   648.44413
          41           2           2   365.21153   683.24821
          41           2           3   412.02523   770.82861
          41           2           4   377.67179   706.55923
          41           2           5   324.37737   606.85450
          41           3           1   344.98847   645.41432
          41           3           2   367.68681   687.87904
          41           3           3   414.67097   775.77834
          41           3           4   373.81209   699.33839
          41           3           5   323.30504   604.84835
          41           4           1   343.84555   643.27611
          41           4           2   371.87020   695.70544
          41           4           3   417.95414   781.92060
          41           4           4   368.17232   688.78734
          41           4           5   323.19765   604.64745
          41           5           1   343.16682   642.00634
          41           5           2   370.22307   692.62394
          41           5           3   419.85018   785.46777
          41           5           4   363.21724   679.51723
          41           5           5   323.25759   604.75957
          42           1           1   343.16682   642.00634
          42           1           2   370.22307   692.62394
          42           1           3   419.85018   785.46777
          42           1           4   363.21724   679.51723
          42           1           5   323.25759   604.75957
          42           2           1   342.48810   640.73656
          42           2           2   370.70510   693.52574
          42           2           3   422.38285   790.20595
          42           2           4   358.26216   670.24713
          42           2           5   323.31752   604.87169
          42           3           1   340.88822   637.74346
          42           3           2   371.60206   695.20380
          42           3           3   420.52542   786.73102
          42           3           4   351.70167   657.97358
          42           3           5   320.94009   600.42393
          42           4           1   338.53470   633.34042
          42           4           2   371.84064   695.65014
          42           4           3   411.35628   769.57714
          42           4           4   345.33397   646.06070
          42           4           5   320.63679   599.85651
          42           5           1   338.72528   633.69698
          42           5           2   369.62392   691.50304
          42           5           3   404.80742   757.32534
          42           5           4   343.17715   642.02567
          42           5           5   318.90236   596.61168
          43           1           1   338.72528   633.69698
          43           1           2   369.62392   691.50304
          43           1           3   404.80742   757.32534
          43           1           4   343.17715   642.02567
          43           1           5   318.90236   596.61168
          43           2           1   339.36567   634.89504
          43           2           2   367.55039   687.62382
          43           2           3   398.25856   745.07355
          43           2           4   340.88332   637.73430
          43           2           5   317.06859   593.18102
          43           3           1   338.44558   633.17370
          43           3           2   363.25699   679.59160
          43           3           3   388.08351   726.03777
          43           3           4   335.05028   626.82168
          43           3           5   314.48582   588.34910
          43           4           1   335.59871   627.84770
          43           4           2   351.88283   658.31249
          43           4           3   377.55404   706.33892
          43           4           4   326.82231   611.42855
          43           4           5   312.04150   583.77620
          43           5           1   333.35421   623.64861
          43           5           2   345.74221   646.82445
          43           5           3   373.83147   699.37464
          43           5           4   320.82990   600.21779
          43           5           5   309.04696   578.17392
          44           1           1   333.35421   623.64861
          44           1           2   345.74221   646.82445
          44           1           3   373.83147   699.37464
          44           1           4   320.82990   600.21779
          44           1           5   309.04696   578.17392
          44           2           1   329.65243   616.72323
          44           2           2   339.87735   635.85230
          44           2           3   370.08462   692.36492
          44           2           4   314.82830   588.98982
          44           2           5   306.04708   572.56165
          44           3           1   323.84578   605.85999
          44           3           2   330.76293   618.80079
          44           3           3   364.47703   681.87409
          44           3           4   304.50515   569.67697
          44           3           5   297.21647   556.04111
          44           4           1   319.86313   598.40912
          44           4           2   318.87755   596.56527
          44           4           3   359.02071   671.66624
          44           4           4   295.09827   552.07831
          44           4           5   289.77564   542.12057
          44           5           1   321.72346   601.88949
          44           5           2   316.06127   591.29650
          44           5           3   353.12940   660.64461
          44           5           4   292.64378   547.48637
          44           5           5   285.23482   533.62549
          45           1           1   321.72346   601.88949
          45           1           2   316.06127   591.29650
          45           1           3   353.12940   660.64461
          45           1           4   292.64378   547.48637
          45           1           5   285.23482   533.62549
          45           2           1   323.68176   605.55313
          45           2           2   311.16369   582.13395
          45           2           3   347.22093   649.59088
          45           2           4   291.46765   545.28604
          45           2           5   281.49384   526.62675
          45           3           1   324.28400   606.67981
          45           3           2   304.40979   569.49857
          45           3           3   335.64328   627.93108
          45           3           4   288.54052   539.80987
          45           3           5   273.73546   512.11215
          45           4           1   323.01666   604.30883
          45           4           2   303.17105   567.18110
          45           4           3   326.20465   610.27303
          45           4           4   284.35765   531.98446
          45           4           5   266.71286   498.97407
          45           5           1   321.43396   601.34788
          45           5           2   303.99041   568.71397
          45           5           3   322.81824   603.93763
          45           5           4   282.19987   527.94761
          45           5           5   265.99953   497.63955
          46           1           1   321.43396   601.34788
          46           1           2   303.99041   568.71397
          46           1           3   322.81824   603.93763
          46           1           4   282.19987   527.94761
          46           1           5   265.99953   497.63955
          46           2           1   319.85358   598.39126
          46           2           2   305.05181   570.69967
          46           2           3   319.65424   598.01832
          46           2           4   280.04890   523.92351
          46           2           5   263.10150   492.21784
          46           3           1   316.61389   592.33034
          46           3           2   307.95070   576.12300
          46           3           3   314.69937   588.74861
          46           3           4   276.99131   518.20329
          46           3           5   260.11670   486.63378
          46           4           1   313.21231   585.96658
          46           4           2   308.88112   577.86366
          46           4           3   309.48792   578.99888
          46           4           4   271.92454   508.72424
          46           4           5   259.66134   485.78189
          46           5           1   312.66600   584.94452
          46           5           2   309.41603   578.86439
          46           5           3   307.58221   575.43363
          46           5           4   271.89371   508.66655
          46           5           5   260.22887   486.84364
          47           1           1   312.66600   584.94452
          47           1           2   309.41603   578.86439
          47           1           3   307.58221   575.43363
          47           1           4   271.89371   508.66655
          47           1           5   260.22887   486.84364
          47           2           1   311.56790   582.89018
          47           2           2   310.28945   580.49840
          47           2           3   305.23193   571.03665
          47           2           4   272.52405   509.84581
          47           2           5   261.86092   489.89693
          47           3           1   308.98791   578.06345
          47           3           2   311.25697   582.30848
          47           3           3   301.66809   564.36931
          47           3           4   275.78367   515.94400
          47           3           5   264.82082   495.43439
          47           4           1   305.79872   572.09702
          47           4           2   311.12941   582.06983
          47           4           3   298.91787   559.22413
          47           4           4   281.92779   527.43860
          47           4           5   268.11436   501.59604
          47           5           1   306.04281   572.55367
          47           5           2   310.05040   580.05119
          47           5           3   296.96896   555.57806
          47           5           4   284.84421   532.89473
          47           5           5   270.37162   505.81898
          48           1           1   306.04281   572.55367
          48           1           2   310.05040   580.05119
          48           1           3   296.96896   555.57806
          48           1           4   284.84421   532.89473
          48           1           5   270.37162   505.81898
          48           2           1   306.38061   573.18563
          48           2           2   308.67355   577.47533
          48           2           3   294.86317   551.63847
          48           2           4   288.26218   539.28916
          48           2           5   272.75154   510.27141
          48           3           1   309.04605   578.17221
          48           3           2   306.19842   572.84479
          48           3           3   291.13531   544.66430
          48           3           4   295.65365   553.11733
          48           3           5   277.32145   518.82092
          48           4           1   311.06176   581.94326
          48           4           2   307.57777   575.42531
          48           4           3   287.75095   538.33273
          48           4           4   304.49774   569.66312
          48           4           5   281.99293   527.56047
          48           5           1   312.96856   585.51056
          48           5           2   308.54604   577.23679
          48           5           3   287.69179   538.22205
          48           5           4   306.52746   573.46037
          48           5           5   283.03618   529.51221
          49           1           1   312.96856   585.51056
          49           1           2   308.54604   577.23679
          49           1           3   287.69179   538.22205
          49           1           4   306.52746   573.46037
          49           1           5   283.03618   529.51221
          49           2           1   315.23345   589.74779
          49           2           2   309.97553   579.91111
          49           2           3   287.96644   538.73588
          49           2           4   308.25895   576.69969
          49           2           5   283.46536   530.31513
          49           3           1   319.24725   597.25691
          49           3           2   311.32638   582.43832
          49           3           3   291.27606   544.92762
          49           3           4   310.14003   580.21887
          49           3           5   285.89402   534.85874
          49           4           1   323.96542   606.08381
          49           4           2   311.56351   582.88196
          49           4           3   299.48905   560.29270
          49           4           4   309.55438   579.12322
          49           4           5   290.36360   543.22056
          49           5           1   323.90059   605.96252
          49           5           2   310.55954   581.00369
          49           5           3   301.84139   564.69353
          49           5           4   310.00074   579.95828
          49           5           5   293.80750   549.66350
          50           1           1   323.90059   605.96252
          50           1           2   310.55954   581.00369
          50           1           3   301.84139   564.69353
          50           1           4   310.00074   579.95828
          50           1           5   293.80750   549.66350
          50           2           1   322.76960   603.84663
          50           2           2   308.92586   577.94737
          50           2           3   304.17082   569.05151
          50           2           4   310.35029   580.61223
          50           2           5   298.81774   559.03680
          50           3           1   322.19827   602.77778
          50           3           2   307.88079   575.99222
          50           3           3   307.68982   575.63495
          50           3           4   311.62945   583.00532
          50           3           5   305.27141   571.11051
          50           4           1   324.90782   607.84687
          50           4           2   309.45652   578.94014
          50           4           3   312.04238   583.77784
          50           4           4   314.19486   587.80476
          50           4           5   311.68462   583.10853
          50           5           1   323.05097   604.37303
          50           5           2   311.14815   582.10489
          50           5           3   314.25098   587.90975
          50           5           4   316.75013   592.58522
          50           5           5   315.84827   590.89800
          51           1           1   323.05097   604.37303
          51           1           2   311.14815   582.10489
          51           1           3   314.25098   587.90975
          51           1           4   316.75013   592.58522
          51           1           5   315.84827   590.89800
          51           2           1   320.39884   599.41134
          51           2           2   313.72948   586.93412
          51           2           3   316.39751   591.92554
          51           2           4   318.86040   596.53319
          51           2           5   318.74501   596.31731
          51           3           1   316.70724   592.50499
          51           3           2   318.43796   595.74288
          51           3           3   321.59148   601.64257
          51           3           4   323.77483   605.72724
          51           3           5   324.24737   606.61128
          51           4           1   313.27352   586.08109
          51           4           2   324.14130   606.41284
          51           4           3   324.29828   606.70653
          51           4           4   328.86572   615.25143
          51           4           5   327.94717   613.53297
          51           5           1   314.24998   587.90789
          51           5           2   325.66876   609.27047
          51           5           3   326.11098   610.09778
          51           5           4   331.95879   621.03803
          51           5           5   331.09476   619.42158
          52           1           1   314.24998   587.90789
          52           1           2   325.66876   609.27047
          52           1           3   326.11098   610.09778
          52           1           4   331.95879   621.03803
          52           1           5   331.09476   619.42158
          52           2           1   319.41973   597.57960
          52           2           2   326.72399   611.24461
          52           2           3   328.26977   614.13650
          52           2           4   334.32404   625.46300
          52           2           5   335.33152   627.34783
          52           3           1   328.28508   614.16514
          52           3           2   330.71891   618.71843
          52           3           3   334.53560   625.85879
          52           3           4   339.25674   634.69125
          52           3           5   343.43028   642.49923
          52           4           1   334.52179   625.83296
          52           4           2   331.12579   619.47963
          52           4           3   340.81403   637.60466
          52           4           4   343.84102   643.26764
          52           4           5   353.36579   661.08685
          52           5           1   337.81659   631.99697
          52           5           2   331.57969   620.32879
          52           5           3   343.96393   643.49760
          52           5           4   346.40335   648.06133
          52           5           5   358.91066   671.46036
          53           1           1   337.81659   631.99697
          53           1           2   331.57969   620.32879
          53           1           3   343.96393   643.49760
          53           1           4   346.40335   648.06133
          53           1           5   358.91066   671.46036
          53           2           1   339.03237   634.27148
          53           2           2   331.88269   620.89567
          53           2           3   346.25318   647.78038
          53           2           4   347.85489   650.77691
          53           2           5   364.73303   682.35302
          53           3           1   340.65949   637.31555
          53           3           2   330.04922   617.46554
          53           3           3   350.17870   655.12435
          53           3           4   351.08569   656.82118
          53           3           5   373.53553   698.82100
          53           4           1   340.03665   636.15032
          53           4           2   325.53168   609.01401
          53           4           3   352.72921   659.89593
          53           4           4   355.90777   665.84247
          53           4           5   384.03810   718.46949
          53           5           1   340.16294   636.38659
          53           5           2   321.82037   602.07078
          53           5           3   351.95667   658.45064
          53           5           4   359.53166   672.62215
          53           5           5   388.24603   726.34181
          54           1           1   340.16294   636.38659
          54           1           2   321.82037   602.07078
          54           1           3   351.95667   658.45064
          54           1           4   359.53166   672.62215
          54           1           5   388.24603   726.34181
          54           2           1   339.79850   635.70479
          54           2           2   318.16364   595.22967
          54           2           3   353.61215   661.54775
          54           2           4   364.06017   681.09422
          54           2           5   390.29295   730.17126
          54           3           1   338.25392   632.81513
          54           3           2   317.27236   593.56224
          54           3           3   356.04168   666.09300
          54           3           4   370.71664   693.54732
          54           3           5   393.87623   736.87495
          54           4           1   337.75548   631.88263
          54           4           2   318.94349   596.68862
          54           4           3   355.07853   664.29110
          54           4           4   372.11874   696.17041
          54           4           5   401.48600   751.11152
          54           5           1   338.14929   632.61939
          54           5           2   319.92239   598.51999
          54           5           3   354.87904   663.91788
          54           5           4   371.93860   695.83340
          54           5           5   404.33799   756.44711
          55           1           1   338.14929   632.61939
          55           1           2   319.92239   598.51999
          55           1           3   354.87904   663.91788
          55           1           4   371.93860   695.83340
          55           1           5   404.33799   756.44711
          55           2           1   339.75750   635.62808
          55           2           2   322.12979   602.64966
          55           2           3   354.12135   662.50038
          55           2           4   370.05768   692.31452
          55           2           5   406.67398   760.81735
          55           3           1   341.77600   639.40435
          55           3           2   328.54357   614.64873
          55           3           3   352.61609   659.68430
          55           3           4   368.44310   689.29393
          55           3           5   412.23663   771.22412
          55           4           1   342.20382   640.20473
          55           4           2   334.32856   625.47146
          55           4           3   351.99256   658.51778
          55           4           4   372.22315   696.36575
          55           4           5   411.91104   770.61499
          55           5           1   340.98165   637.91825
          55           5           2   334.92808   626.59306
          55           5           3   352.00980   658.55003
          55           5           4   374.20625   700.07580
          55           5           5   411.12470   769.14388
          56           1           1   340.98165   637.91825
          56           1           2   334.92808   626.59306
          56           1           3   352.00980   658.55003
          56           1           4   374.20625   700.07580
          56           1           5   411.12470   769.14388
          56           2           1   336.94287   630.36239
          56           2           2   333.44047   623.80999
          56           2           3   354.70648   663.59505
          56           2           4   378.05669   707.27931
          56           2           5   409.93749   766.92282
          56           3           1   329.88209   617.15288
          56           3           2   330.96123   619.17176
          56           3           3   358.35329   670.41761
          56           3           4   385.27038   720.77488
          56           3           5   410.05626   767.14502
          56           4           1   326.51291   610.84973
          56           4           2   327.06911   611.89028
          56           4           3   363.67630   680.37606
          56           4           4   391.95465   733.28001
          56           4           5   408.08778   763.46234
          56           5           1   324.17245   606.47113
          56           5           2   326.44768   610.72769
          56           5           3   364.97107   682.79834
          56           5           4   394.58325   738.19767
          56           5           5   407.45714   762.28250
          57           1           1   324.17245   606.47113
          57           1           2   326.44768   610.72769
          57           1           3   364.97107   682.79834
          57           1           4   394.58325   738.19767
          57           1           5   407.45714   762.28250
          57           2           1   322.79960   603.90276
          57           2           2   327.55196   612.79361
          57           2           3   366.10399   684.91784
          57           2           4   398.41422   745.36475
          57           2           5   408.59493   764.41113
          57           3           1   320.96867   600.47740
          57           3           2   328.19859   614.00335
          57           3           3   368.35195   689.12339
          57           3           4   405.36987   758.37759
          57           3           5   409.43175   765.97666
          57           4           1   325.51033   608.97406
          57           4           2   328.88066   615.27938
          57           4           3   372.77818   697.40412
          57           4           4   409.00593   765.18003
          57           4           5   408.75836   764.71687
          57           5           1   328.43315   614.44217
          57           5           2   329.63429   616.68928
          57           5           3   374.46382   700.55767
          57           5           4   409.61761   766.32438
          57           5           5   407.92399   763.15591
          58           1           1   328.43315   614.44217
          58           1           2   329.63429   616.68928
          58           1           3   374.46382   700.55767
          58           1           4   409.61761   766.32438
          58           1           5   407.92399   763.15591
          58           2           1   331.34155   619.88328
          58           2           2   330.81163   618.89190
          58           2           3   372.66192   697.18662
          58           2           4   410.80639   768.54839
          58           2           5   405.67345   758.94553
          58           3           1   336.12565   628.83352
          58           3           2   331.62011   620.40442
          58           3           3   369.40932   691.10155
          58           3           4   413.82357   774.19301
          58           3           5   400.14329   748.59954
          58           4           1   339.18927   634.56503
          58           4           2   336.10657   628.79781
          58           4           3   365.71729   684.19440
          58           4           4   420.49109   786.66679
          58           4           5   394.79478   738.59341
          58           5           1   341.02372   637.99696
          58           5           2   337.87944   632.11455
          58           5           3   363.85413   680.70875
          58           5           4   423.35780   792.02992
          58           5           5   395.42094   739.76485
          59           1           1   341.02372   637.99696
          59           1           2   337.87944   632.11455
          59           1           3   363.85413   680.70875
          59           1           4   423.35780   792.02992
          59           1           5   395.42094   739.76485
          59           2           1   344.10255   643.75693
          59           2           2   339.01491   634.23882
          59           2           3   360.96828   675.30981
          59           2           4   424.87677   794.87165
          59           2           5   398.24315   745.04471
          59           3           1   349.59180   654.02637
          59           3           2   343.37360   642.39317
          59           3           3   356.01572   666.04442
          59           3           4   428.05676   800.82088
          59           3           5   403.44736   754.78090
          59           4           1   349.59582   654.03390
          59           4           2   344.07503   643.70544
          59           4           3   354.14006   662.53538
          59           4           4   431.00410   806.33484
          59           4           5   404.63503   757.00282
          59           5           1   349.50069   653.85592
          59           5           2   344.58312   644.65598
          59           5           3   353.14629   660.67621
          59           5           4   432.40167   808.94945
          59           5           5   405.20886   758.07635
          60           1           1   349.50069   653.85592
          60           1           2   344.58312   644.65598
          60           1           3   353.14629   660.67621
          60           1           4   432.40167   808.94945
          60           1           5   405.20886   758.07635
          60           2           1   348.62320   652.21428
          60           2           2   341.96910   639.76561
          60           2           3   352.01802   658.56541
          60           2           4   430.16158   804.75862
          60           2           5   406.42562   760.35270
          60           3           1   345.96625   647.24359
          60           3           2   337.28762   631.00736
          60           3           3   350.28485   655.32295
          60           3           4   426.78997   798.45093
          60           3           5   408.48009   764.19628
          60           4           1   347.16388   649.48414
          60           4           2   332.46021   621.97610
          60           4           3   349.85546   654.51963
          60           4           4   422.56403   790.54491
          60           4           5   406.03345   759.61903
          60           5           1   348.03290   651.10993
          60           5           2   327.87379   613.39569
          60           5           3   349.30075   653.48187
          60           5           4   420.14062   786.01113
          60           5           5   404.99396   757.67433
          61           1           1   372.63437   697.13508
          61           1           2   357.35970   668.55878
          61           1           3   288.93798   540.55346
          61           1           4   265.59060   496.87452
          61           1           5   261.67499   489.54908
          61           2           1   372.12229   696.17705
          61           2           2   355.08074   664.29523
          61           2           3   284.86763   532.93853
          61           2           4   267.82311   501.05116
          61           2           5   263.35270   492.68779
          61           3           1   368.63233   689.64793
          61           3           2   350.15703   655.08381
          61           3           3   282.71760   528.91619
          61           3           4   272.95089   510.64436
          61           3           5   265.43016   496.57436
          61           4           1   365.95954   684.64760
          61           4           2   342.64519   641.03045
          61           4           3   283.60285   530.57234
          61           4           4   277.94972   519.99631
          61           4           5   267.96690   501.32017
          61           5           1   362.44502   678.07254
          61           5           2   339.23799   634.65616
          61           5           3   283.68593   530.72777
          61           5           4   279.54671   522.98401
          61           5           5   270.26088   505.61181
          62           1           1   362.44502   678.07254
          62           1           2   339.23799   634.65616
          62           1           3   283.68593   530.72777
          62           1           4   279.54671   522.98401
          62           1           5   270.26088   505.61181
          62           2           1   358.45768   670.61291
          62           2           2   333.97526   624.81049
          62           2           3   283.62007   530.60457
          62           2           4   281.14370   525.97171
          62           2           5   273.88786   512.39728
          62           3           1   354.12822   662.51324
          62           3           2   328.27282   614.14222
          62           3           3   285.55187   534.21864
          62           3           4   285.12894   533.42741
          62           3           5   281.61381   526.85120
          62           4           1   352.64917   659.74618
          62           4           2   324.81808   607.67899
          62           4           3   286.51653   536.02334
          62           4           4   290.23184   542.97405
          62           4           5   290.67705   543.80697
          62           5           1   351.46724   657.53499
          62           5           2   325.03110   608.07750
          62           5           3   288.86204   540.41140
          62           5           4   295.19058   552.25101
          62           5           5   297.25993   556.12240
          63           1           1   351.46724   657.53499
          63           1           2   325.03110   608.07750
          63           1           3   288.86204   540.41140
          63           1           4   295.19058   552.25101
          63           1           5   297.25993   556.12240
          63           2           1   350.28531   655.32381
          63           2           2   324.74183   607.53633
          63           2           3   290.84551   544.12213
          63           2           4   300.14932   561.52796
          63           2           5   303.76833   568.29850
          63           3           1   346.97748   649.13543
          63           3           2   322.85013   603.99729
          63           3           3   291.21277   544.80920
          63           3           4   311.61896   582.98570
          63           3           5   316.18732   591.53231
          63           4           1   345.47207   646.31907
          63           4           2   321.44495   601.36844
          63           4           3   295.62860   553.07047
          63           4           4   323.67055   605.53215
          63           4           5   327.50749   612.71041
          63           5           1   341.70692   639.27511
          63           5           2   318.05199   595.02079
          63           5           3   298.61145   558.65086
          63           5           4   328.39307   614.36718
          63           5           5   330.42581   618.17009
          64           1           1   341.70692   639.27511
          64           1           2   318.05199   595.02079
          64           1           3   298.61145   558.65086
          64           1           4   328.39307   614.36718
          64           1           5   330.42581   618.17009
          64           2           1   337.21482   630.87115
          64           2           2   316.23617   591.62370
          64           2           3   301.59001   564.22325
          64           2           4   333.11559   623.20221
          64           2           5   332.68633   622.39914
          64           3           1   330.62530   618.54329
          64           3           2   313.69200   586.86399
          64           3           3   310.27517   580.47170
          64           3           4   338.88464   633.99512
          64           3           5   335.90996   628.43000
          64           4           1   323.80005   605.77443
          64           4           2   315.79305   590.79470
          64           4           3   319.13204   597.04138
          64           4           4   342.47083   640.70425
          64           4           5   337.98897   632.31946
          64           5           1   324.08871   606.31447
          64           5           2   316.78273   592.64622
          64           5           3   320.88040   600.31225
          64           5           4   342.23214   640.25770
          64           5           5   338.08420   632.49762
          65           1           1   324.08871   606.31447
          65           1           2   316.78273   592.64622
          65           1           3   320.88040   600.31225
          65           1           4   342.23214   640.25770
          65           1           5   338.08420   632.49762
          65           2           1   324.37737   606.85450
          65           2           2   317.26185   593.54258
          65           2           3   324.21399   606.54883
          65           2           4   341.99345   639.81115
          65           2           5   337.92369   632.19734
          65           3           1   323.30504   604.84835
          65           3           2   318.30730   595.49843
          65           3           3   326.45613   610.74350
          65           3           4   341.86420   639.56936
          65           3           5   334.06536   624.97907
          65           4           1   323.19765   604.64745
          65           4           2   317.58364   594.14458
          65           4           3   326.24510   610.34869
          65           4           4   341.86425   639.56944
          65           4           5   330.02132   617.41335
          65           5           1   323.25759   604.75957
          65           5           2   315.99619   591.17474
          65           5           3   326.83155   611.44584
          65           5           4   340.65705   637.31099
          65           5           5   327.88659   613.41964
          66           1           1   323.25759   604.75957
          66           1           2   315.99619   591.17474
          66           1           3   326.83155   611.44584
          66           1           4   340.65705   637.31099
          66           1           5   327.88659   613.41964
          66           2           1   323.31752   604.87169
          66           2           2   313.54983   586.59803
          66           2           3   327.85210   613.35511
          66           2           4   339.44986   635.05253
          66           2           5   326.28558   610.42442
          66           3           1   320.94009   600.42393
          66           3           2   309.82920   579.63736
          66           3           3   329.11819   615.72375
          66           3           4   337.42840   631.27073
          66           3           5   322.58959   603.50986
          66           4           1   320.63679   599.85651
          66           4           2   307.10954   574.54933
          66           4           3   329.99960   617.37273
          66           4           4   335.58732   627.82638
          66           4           5   319.40045   597.54353
          66           5           1   318.90236   596.61168
          66           5           2   306.59749   573.59139
          66           5           3   332.64974   622.33069
          66           5           4   332.77602   622.56693
          66           5           5   317.25462   593.52904
          67           1           1   318.90236   596.61168
          67           1           2   306.59749   573.59139
          67           1           3   332.64974   622.33069
          67           1           4   332.77602   622.56693
          67           1           5   317.25462   593.52904
          67           2           1   317.06859   593.18102
          67           2           2   306.71264   573.80681
          67           2           3   335.29989   627.28865
          67           2           4   329.96473   617.30748
          67           2           5   313.88755   587.22983
          67           3           1   314.48582   588.34910
          67           3           2   307.05423   574.44586
          67           3           3   335.80134   628.22677
          67           3           4   326.56819   610.95314
          67           3           5   306.32328   573.07838
          67           4           1   312.04150   583.77620
          67           4           2   306.12522   572.70785
          67           4           3   336.19930   628.97129
          67           4           4   324.88750   607.80885
          67           4           5   300.13746   561.50577
          67           5           1   309.04696   578.17392
          67           5           2   306.91561   574.18653
          67           5           3   333.92452   624.71556
          67           5           4   322.33538   603.03428
          67           5           5   297.96549   557.44238
          68           1           1   309.04696   578.17392
          68           1           2   306.91561   574.18653
          68           1           3   333.92452   624.71556
          68           1           4   322.33538   603.03428
          68           1           5   297.96549   557.44238
          68           2           1   306.04708   572.56165
          68           2           2   307.86923   575.97058
          68           2           3   331.63590   620.43396
          68           2           4   319.77399   598.24236
          68           2           5   295.79137   553.37497
          68           3           1   297.21647   556.04111
          68           3           2   308.61118   577.35865
          68           3           3   327.72236   613.11240
          68           3           4   314.34487   588.08540
          68           3           5   292.26277   546.77358
          68           4           1   289.77564   542.12057
          68           4           2   311.00567   581.83832
          68           4           3   322.49056   603.32459
          68           4           4   308.44195   577.04205
          68           4           5   291.28500   544.94433
          68           5           1   285.23482   533.62549
          68           5           2   308.70653   577.53703
          68           5           3   322.74481   603.80026
          68           5           4   308.49477   577.14086
          68           5           5   292.20401   546.66365
          69           1           1   285.23482   533.62549
          69           1           2   308.70653   577.53703
          69           1           3   322.74481   603.80026
          69           1           4   308.49477   577.14086
          69           1           5   292.20401   546.66365
          69           2           1   281.49384   526.62675
          69           2           2   307.59330   575.45438
          69           2           3   321.33972   601.17156
          69           2           4   308.78773   577.68895
          69           2           5   293.22119   548.56662
          69           3           1   273.73546   512.11215
          69           3           2   305.89627   572.27952
          69           3           3   318.34273   595.56472
          69           3           4   309.57578   579.16325
          69           3           5   294.17713   550.35502
          69           4           1   266.71286   498.97407
          69           4           2   298.83186   559.06321
          69           4           3   315.88711   590.97067
          69           4           4   310.61760   581.11232
          69           4           5   292.99552   548.14442
          69           5           1   265.99953   497.63955
          69           5           2   294.59839   551.14312
          69           5           3   312.94224   585.46131
          69           5           4   310.91116   581.66152
          69           5           5   290.43541   543.35489
          70           1           1   265.99953   497.63955
          70           1           2   294.59839   551.14312
          70           1           3   312.94224   585.46131
          70           1           4   310.91116   581.66152
          70           1           5   290.43541   543.35489
          70           2           1   263.10150   492.21784
          70           2           2   290.68397   543.81991
          70           2           3   309.62607   579.25734
          70           2           4   311.17140   582.14839
          70           2           5   287.84361   538.50608
          70           3           1   260.11670   486.63378
          70           3           2   284.96590   533.12238
          70           3           3   306.63601   573.66344
          70           3           4   311.13086   582.07253
          70           3           5   284.61214   532.46056
          70           4           1   259.66134   485.78189
          70           4           2   281.09955   525.88911
          70           4           3   306.04626   572.56013
          70           4           4   310.59642   581.07270
          70           4           5   281.96153   527.50172
          70           5           1   260.22887   486.84364
          70           5           2   278.58469   521.18423
          70           5           3   305.93290   572.34805
          70           5           4   312.10898   583.90244
          70           5           5   283.28339   529.97469
          71           1           1   260.22887   486.84364
          71           1           2   278.58469   521.18423
          71           1           3   305.93290   572.34805
          71           1           4   312.10898   583.90244
          71           1           5   283.28339   529.97469
          71           2           1   261.86092   489.89693
          71           2           2   276.11781   516.56913
          71           2           3   306.54307   573.48957
          71           2           4   314.13792   587.69823
          71           2           5   281.83895   527.27240
          71           3           1   264.82082   495.43439
          71           3           2   272.30477   509.43558
          71           3           3   309.08726   578.24931
          71           3           4   318.91330   596.63214
          71           3           5   281.26273   526.19439
          71           4           1   268.11436   501.59604
          71           4           2   267.04352   499.59268
          71           4           3   316.38351   591.89936
          71           4           4   324.98998   608.00058
          71           4           5   285.53573   534.18844
          71           5           1   270.37162   505.81898
          71           5           2   268.49736   502.31256
          71           5           3   319.94579   598.56376
          71           5           4   324.78510   607.61729
          71           5           5   288.67828   540.06761
          72           1           1   270.37162   505.81898
          72           1           2   268.49736   502.31256
          72           1           3   319.94579   598.56376
          72           1           4   324.78510   607.61729
          72           1           5   288.67828   540.06761
          72           2           1   272.75154   510.27141
          72           2           2   271.27972   507.51788
          72           2           3   323.41776   605.05923
          72           2           4   323.46464   605.14692
          72           2           5   291.68106   545.68529
          72           3           1   277.32145   518.82092
          72           3           2   277.23952   518.66766
          72           3           3   329.83996   617.07406
          72           3           4   320.42013   599.45117
          72           3           5   294.98516   551.86671
          72           4           1   281.99293   527.56047
          72           4           2   287.82134   538.46442
          72           4           3   339.62567   635.38146
          72           4           4   316.51352   592.14257
          72           4           5   292.64004   547.47938
          72           5           1   283.03618   529.51221
          72           5           2   292.54451   547.30066
          72           5           3   344.40039   644.31413
          72           5           4   315.64361   590.51511
          72           5           5   291.31830   545.00663
          73           1           1   283.03618   529.51221
          73           1           2   292.54451   547.30066
          73           1           3   344.40039   644.31413
          73           1           4   315.64361   590.51511
          73           1           5   291.31830   545.00663
          73           2           1   283.46536   530.31513
          73           2           2   296.83826   555.33353
          73           2           3   348.37031   651.74116
          73           2           4   315.07905   589.45892
          73           2           5   290.01281   542.56429
          73           3           1   285.89402   534.85874
          73           3           2   307.57497   575.42007
          73           3           3   356.09073   666.18475
          73           3           4   314.36421   588.12159
          73           3           5   286.65433   536.28115
          73           4           1   290.36360   543.22056
          73           4           2   317.56806   594.11544
          73           4           3   358.73460   671.13098
          73           4           4   314.15123   587.72314
          73           4           5   285.09095   533.35633
          73           5           1   293.80750   549.66350
          73           5           2   322.59861   603.52674
          73           5           3   360.69239   674.79368
          73           5           4   315.38521   590.03171
          73           5           5   285.09468   533.36330
          74           1           1   293.80750   549.66350
          74           1           2   322.59861   603.52674
          74           1           3   360.69239   674.79368
          74           1           4   315.38521   590.03171
          74           1           5   285.09468   533.36330
          74           2           1   298.81774   559.03680
          74           2           2   327.78003   613.22029
          74           2           3   362.98812   679.08858
          74           2           4   317.34450   593.69720
          74           2           5   285.52075   534.16041
          74           3           1   305.27141   571.11051
          74           3           2   335.51337   627.68804
          74           3           3   371.04037   694.15296
          74           3           4   320.82759   600.21346
          74           3           5   286.06275   535.17440
          74           4           1   311.68462   583.10853
          74           4           2   344.29584   644.11854
          74           4           3   383.43619   717.34342
          74           4           4   323.82870   605.82803
          74           4           5   285.30101   533.74931
          74           5           1   315.84827   590.89800
          74           5           2   347.77943   650.63573
          74           5           3   388.19565   726.24756
          74           5           4   326.76131   611.31443
          74           5           5   285.97792   535.01570
          75           1           1   315.84827   590.89800
          75           1           2   347.77943   650.63573
          75           1           3   388.19565   726.24756
          75           1           4   326.76131   611.31443
          75           1           5   285.97792   535.01570
          75           2           1   318.74501   596.31731
          75           2           2   350.37931   655.49967
          75           2           3   392.32783   733.97817
          75           2           4   330.54604   618.39502
          75           2           5   287.63104   538.10840
          75           3           1   324.24737   606.61128
          75           3           2   355.67310   665.40344
          75           3           3   398.85063   746.18119
          75           3           4   336.48193   629.50004
          75           3           5   292.31330   546.86811
          75           4           1   327.94717   613.53297
          75           4           2   359.40992   672.39439
          75           4           3   402.12383   752.30481
          75           4           4   339.18558   634.55812
          75           4           5   296.21906   554.17512
          75           5           1   331.09476   619.42158
          75           5           2   362.60727   678.37609
          75           5           3   405.13963   757.94685
          75           5           4   341.02068   637.99126
          75           5           5   296.92057   555.48752
          76           1           1   331.09476   619.42158
          76           1           2   362.60727   678.37609
          76           1           3   405.13963   757.94685
          76           1           4   341.02068   637.99126
          76           1           5   296.92057   555.48752
          76           2           1   335.33152   627.34783
          76           2           2   366.97868   686.55425
          76           2           3   408.14895   763.57677
          76           2           4   343.22348   642.11234
          76           2           5   297.25589   556.11485
          76           3           1   343.43028   642.49923
          76           3           2   378.21409   707.57378
          76           3           3   414.18949   774.87758
          76           3           4   347.30069   649.74009
          76           3           5   298.05359   557.60721
          76           4           1   353.36579   661.08685
          76           4           2   390.29767   730.18009
          76           4           3   421.03924   787.69229
          76           4           4   351.57631   657.73904
          76           4           5   295.33093   552.51358
          76           5           1   358.91066   671.46036
          76           5           2   395.84555   740.55921
          76           5           3   424.96647   795.03947
          76           5           4   352.72498   659.88801
          76           5           5   294.36179   550.70048
          77           1           1   358.91066   671.46036
          77           1           2   395.84555   740.55921
          77           1           3   424.96647   795.03947
          77           1           4   352.72498   659.88801
          77           1           5   294.36179   550.70048
          77           2           1   364.73303   682.35302
          77           2           2   400.07176   748.46572
          77           2           3   426.03533   797.03912
          77           2           4   352.55518   659.57034
          77           2           5   294.56758   551.08547
          77           3           1   373.53553   698.82100
          77           3           2   407.92333   763.15467
          77           3           3   427.31412   799.43151
          77           3           4   351.34207   657.30082
          77           3           5   293.71999   549.49978
          77           4           1   384.03810   718.46949
          77           4           2   413.74301   774.04230
          77           4           3   432.29486   808.74962
          77           4           4   347.16944   649.49456
          77           4           5   290.99594   544.40355
          77           5           1   388.24603   726.34181
          77           5           2   417.79531   781.62346
          77           5           3   434.01540   811.96846
          77           5           4   345.38250   646.15149
          77           5           5   289.17309   540.99332
          78           1           1   388.24603   726.34181
          78           1           2   417.79531   781.62346
          78           1           3   434.01540   811.96846
          78           1           4   345.38250   646.15149
          78           1           5   289.17309   540.99332
          78           2           1   390.29295   730.17126
          78           2           2   422.37645   790.19398
          78           2           3   433.89636   811.74577
          78           2           4   344.00293   643.57056
          78           2           5   286.57325   536.12947
          78           3           1   393.87623   736.87495
          78           3           2   427.84352   800.42192
          78           3           3   433.90086   811.75418
          78           3           4   342.53009   640.81512
          78           3           5   281.67737   526.97012
          78           4           1   401.48600   751.11152
          78           4           2   431.15825   806.62322
          78           4           3   432.69344   809.49530
          78           4           4   345.99814   647.30324
          78           4           5   281.69172   526.99696
          78           5           1   404.33799   756.44711
          78           5           2   433.26357   810.56192
          78           5           3   431.17762   806.65946
          78           5           4   346.44748   648.14389
          78           5           5   282.50149   528.51189
          79           1           1   404.33799   756.44711
          79           1           2   433.26357   810.56192
          79           1           3   431.17762   806.65946
          79           1           4   346.44748   648.14389
          79           1           5   282.50149   528.51189
          79           2           1   406.67398   760.81735
          79           2           2   433.97898   811.90032
          79           2           3   428.30413   801.28366
          79           2           4   344.34481   644.21014
          79           2           5   283.69693   530.74836
          79           3           1   412.23663   771.22412
          79           3           2   431.78533   807.79639
          79           3           3   426.43566   797.78807
          79           3           4   341.03605   638.02003
          79           3           5   286.15702   535.35076
          79           4           1   411.91104   770.61499
          79           4           2   427.36290   799.52278
          79           4           3   425.30286   795.66879
          79           4           4   341.23847   638.39872
          79           4           5   284.97806   533.14514
          79           5           1   411.12470   769.14388
          79           5           2   427.31370   799.43073
          79           5           3   425.11841   795.32371
          79           5           4   341.52775   638.93992
          79           5           5   284.95217   533.09670
          80           1           1   411.12470   769.14388
          80           1           2   427.31370   799.43073
          80           1           3   425.11841   795.32371
          80           1           4   341.52775   638.93992
          80           1           5   284.95217   533.09670
          80           2           1   409.93749   766.92282
          80           2           2   430.09111   804.62679
          80           2           3   427.75747   800.26095
          80           2           4   342.25848   640.30698
          80           2           5   287.39291   537.66290
          80           3           1   410.05626   767.14502
          80           3           2   429.65394   803.80892
          80           3           3   434.84606   813.52249
          80           3           4   343.70418   643.01163
          80           3           5   294.99426   551.88373
          80           4           1   408.08778   763.46234
          80           4           2   430.02837   804.50941
          80           4           3   438.32087   820.02326
          80           4           4   346.04024   647.38201
          80           4           5   305.19886   570.97478
          80           5           1   407.45714   762.28250
          80           5           2   429.70509   803.90462
          80           5           3   439.60129   822.41870
          80           5           4   346.71172   648.63824
          80           5           5   308.44451   577.04684
          81           1           1   407.45714   762.28250
          81           1           2   429.70509   803.90462
          81           1           3   439.60129   822.41870
          81           1           4   346.71172   648.63824
          81           1           5   308.44451   577.04684
          81           2           1   408.59493   764.41113
          81           2           2   428.22359   801.13298
          81           2           3   440.77514   824.61478
          81           2           4   345.07672   645.57944
          81           2           5   313.12031   585.79447
          81           3           1   409.43175   765.97666
          81           3           2   424.84516   794.81252
          81           3           3   440.49417   824.08913
          81           3           4   342.55234   640.85674
          81           3           5   316.34500   591.82731
          81           4           1   408.75836   764.71687
          81           4           2   421.82809   789.16810
          81           4           3   438.92668   821.15663
          81           4           4   344.77662   645.01800
          81           4           5   318.49903   595.85712
          81           5           1   407.92399   763.15591
          81           5           2   420.06519   785.87001
          81           5           3   437.63061   818.73190
          81           5           4   346.06960   647.43694
          81           5           5   319.60619   597.92842
          82           1           1   407.92399   763.15591
          82           1           2   420.06519   785.87001
          82           1           3   437.63061   818.73190
          82           1           4   346.06960   647.43694
          82           1           5   319.60619   597.92842
          82           2           1   405.67345   758.94553
          82           2           2   419.15208   784.16174
          82           2           3   436.60981   816.82216
          82           2           4   347.17899   649.51242
          82           2           5   319.94768   598.56730
          82           3           1   400.14329   748.59954
          82           3           2   415.38525   777.11464
          82           3           3   430.31124   805.03861
          82           3           4   349.54116   653.93164
          82           3           5   323.55091   605.30832
          82           4           1   394.79478   738.59341
          82           4           2   414.98910   776.37352
          82           4           3   424.68805   794.51859
          82           4           4   356.21272   666.41297
          82           4           5   326.60110   611.01470
          82           5           1   395.42094   739.76485
          82           5           2   415.07289   776.53028
          82           5           3   422.11659   789.70783
          82           5           4   359.72634   672.98636
          82           5           5   329.47552   616.39225
          83           1           1   395.42094   739.76485
          83           1           2   415.07289   776.53028
          83           1           3   422.11659   789.70783
          83           1           4   359.72634   672.98636
          83           1           5   329.47552   616.39225
          83           2           1   398.24315   745.04471
          83           2           2   413.51287   773.61174
          83           2           3   420.08750   785.91175
          83           2           4   363.60535   680.24331
          83           2           5   332.41777   621.89670
          83           3           1   403.44736   754.78090
          83           3           2   413.18379   772.99610
          83           3           3   416.19151   778.62303
          83           3           4   370.89136   693.87420
          83           3           5   334.58602   625.95312
          83           4           1   404.63503   757.00282
          83           4           2   409.48246   766.07153
          83           4           3   415.13838   776.65279
          83           4           4   376.79289   704.91494
          83           4           5   342.18057   640.16124
          83           5           1   405.20886   758.07635
          83           5           2   405.77666   759.13863
          83           5           3   414.82513   776.06676
          83           5           4   379.80875   710.55711
          83           5           5   345.86501   647.05418
          84           1           1   405.20886   758.07635
          84           1           2   405.77666   759.13863
          84           1           3   414.82513   776.06676
          84           1           4   379.80875   710.55711
          84           1           5   345.86501   647.05418
          84           2           1   406.42562   760.35270
          84           2           2   405.59657   758.80170
          84           2           3   417.12019   780.36042
          84           2           4   381.69014   714.07687
          84           2           5   350.30333   655.35752
          84           3           1   408.48009   764.19628
          84           3           2   407.46097   762.28967
          84           3           3   420.50289   786.68887
          84           3           4   385.29250   720.81626
          84           3           5   360.32935   674.11449
          84           4           1   406.03345   759.61903
          84           4           2   413.13523   772.90523
          84           4           3   423.13061   791.60488
          84           4           4   388.67255   727.13976
          84           4           5   365.04134   682.92982
          84           5           1   404.99396   757.67433
          84           5           2   413.89501   774.32667
          84           5           3   424.47640   794.12264
          84           5           4   390.45562   730.47557
          84           5           5   366.02541   684.77083
          85           1           1   261.67499   489.54908
          85           1           2   267.76247   500.93772
          85           1           3   245.47311   459.23813
          85           1           4   256.02832   478.98513
          85           1           5   224.34903   419.71860
          85           2           1   263.35270   492.68779
          85           2           2   270.33920   505.75833
          85           2           3   247.14240   462.36110
          85           2           4   255.15638   477.35388
          85           2           5   221.54273   414.46850
          85           3           1   265.43016   496.57436
          85           3           2   272.94161   510.62700
          85           3           3   254.62630   476.36218
          85           3           4   250.09416   467.88334
          85           3           5   217.51800   406.93892
          85           4           1   267.96690   501.32017
          85           4           2   278.39469   520.82877
          85           4           3   261.78697   489.75858
          85           4           4   243.26048   455.09868
          85           4           5   212.57763   397.69633
          85           5           1   270.26088   505.61181
          85           5           2   281.87750   527.34451
          85           5           3   265.52600   496.75366
          85           5           4   239.95306   448.91107
          85           5           5   213.23626   398.92851
          86           1           1   270.26088   505.61181
          86           1           2   281.87750   527.34451
          86           1           3   265.52600   496.75366
          86           1           4   239.95306   448.91107
          86           1           5   213.23626   398.92851
          86           2           1   273.88786   512.39728
          86           2           2   282.24617   528.03424
          86           2           3   268.46512   502.25225
          86           2           4   236.64564   442.72345
          86           2           5   213.84294   400.06350
          86           3           1   281.61381   526.85120
          86           3           2   284.86334   532.93050
          86           3           3   273.73252   512.10665
          86           3           4   234.85904   439.38102
          86           3           5   218.04064   407.91668
          86           4           1   290.67705   543.80697
          86           4           2   288.51569   539.76344
          86           4           3   278.44391   520.92085
          86           4           4   236.46454   442.38466
          86           4           5   220.14845   411.86003
          86           5           1   297.25993   556.12240
          86           5           2   294.39502   550.76266
          86           5           3   279.19614   522.32814
          86           5           4   236.55040   442.54528
          86           5           5   220.62962   412.76022
          87           1           1   297.25993   556.12240
          87           1           2   294.39502   550.76266
          87           1           3   279.19614   522.32814
          87           1           4   236.55040   442.54528
          87           1           5   220.62962   412.76022
          87           2           1   303.76833   568.29850
          87           2           2   297.62172   556.79925
          87           2           3   280.56756   524.89384
          87           2           4   236.63626   442.70590
          87           2           5   221.46921   414.33096
          87           3           1   316.18732   591.53231
          87           3           2   302.17183   565.31174
          87           3           3   281.48134   526.60336
          87           3           4   235.74578   441.03998
          87           3           5   220.55510   412.62081
          87           4           1   327.50749   612.71041
          87           4           2   311.60228   582.95448
          87           4           3   280.11980   524.05616
          87           4           4   234.35070   438.43002
          87           4           5   217.04026   406.04514
          87           5           1   330.42581   618.17009
          87           5           2   312.65738   584.92840
          87           5           3   276.98665   518.19458
          87           5           4   233.23829   436.34889
          87           5           5   212.84537   398.19723
          88           1           1   330.42581   618.17009
          88           1           2   312.65738   584.92840
          88           1           3   276.98665   518.19458
          88           1           4   233.23829   436.34889
          88           1           5   212.84537   398.19723
          88           2           1   332.68633   622.39914
          88           2           2   313.58402   586.66199
          88           2           3   273.99475   512.59724
          88           2           4   232.12588   434.26777
          88           2           5   208.45000   389.97423
          88           3           1   335.90996   628.43000
          88           3           2   312.37778   584.40531
          88           3           3   267.06330   499.62969
          88           3           4   227.41241   425.44966
          88           3           5   199.79081   373.77439
          88           4           1   337.98897   632.31946
          88           4           2   310.85116   581.54927
          88           4           3   261.30395   488.85494
          88           4           4   221.59222   414.56108
          88           4           5   193.80076   362.56803
          88           5           1   338.08420   632.49762
          88           5           2   309.36103   578.76150
          88           5           3   258.11098   482.88143
          88           5           4   218.52864   408.82966
          88           5           5   193.66869   362.32094
          89           1           1   338.08420   632.49762
          89           1           2   309.36103   578.76150
          89           1           3   258.11098   482.88143
          89           1           4   218.52864   408.82966
          89           1           5   193.66869   362.32094
          89           2           1   337.92369   632.19734
          89           2           2   308.26016   576.70196
          89           2           3   255.93589   478.81221
          89           2           4   215.39572   402.96849
          89           2           5   192.46567   360.07030
          89           3           1   334.06536   624.97907
          89           3           2   304.21654   569.13702
          89           3           3   255.95497   478.84790
          89           3           4   209.60492   392.13490
          89           3           5   191.35605   357.99438
          89           4           1   330.02132   617.41335
          89           4           2   305.34295   571.24434
          89           4           3   256.03574   478.99902
          89           4           4   203.56627   380.83763
          89           4           5   189.31605   354.17790
          89           5           1   327.88659   613.41964
          89           5           2   306.95922   574.26812
          89           5           3   254.42070   475.97754
          89           5           4   200.46868   375.04256
          89           5           5   187.05933   349.95597
          90           1           1   327.88659   613.41964
          90           1           2   306.95922   574.26812
          90           1           3   254.42070   475.97754
          90           1           4   200.46868   375.04256
          90           1           5   187.05933   349.95597
          90           2           1   326.28558   610.42442
          90           2           2   307.53665   575.34839
          90           2           3   253.94428   475.08625
          90           2           4   197.37108   369.24748
          90           2           5   186.67956   349.24547
          90           3           1   322.58959   603.50986
          90           3           2   305.41302   571.37544
          90           3           3   251.99785   471.44480
          90           3           4   191.95829   359.12108
          90           3           5   184.21656   344.63763
          90           4           1   319.40045   597.54353
          90           4           2   302.12884   565.23130
          90           4           3   248.72779   465.32708
          90           4           4   187.69476   351.14474
          90           4           5   181.30876   339.19764
          90           5           1   317.25462   593.52904
          90           5           2   298.17325   557.83106
          90           5           3   246.10452   460.41939
          90           5           4   186.92776   349.70982
          90           5           5   178.86923   334.63369
          91           1           1   317.25462   593.52904
          91           1           2   298.17325   557.83106
          91           1           3   246.10452   460.41939
          91           1           4   186.92776   349.70982
          91           1           5   178.86923   334.63369
          91           2           1   313.88755   587.22983
          91           2           2   294.72332   551.37685
          91           2           3   243.43015   455.41610
          91           2           4   186.16076   348.27489
          91           2           5   176.99319   331.12394
          91           3           1   306.32328   573.07838
          91           3           2   287.92335   538.65527
          91           3           3   235.57261   440.71600
          91           3           4   186.57916   349.05764
          91           3           5   180.15304   337.03548
          91           4           1   300.13746   561.50577
          91           4           2   282.25350   528.04795
          91           4           3   227.47457   425.56595
          91           4           4   190.97473   357.28100
          91           4           5   184.67370   345.49285
          91           5           1   297.96549   557.44238
          91           5           2   279.51338   522.92166
          91           5           3   224.86696   420.68756
          91           5           4   191.65710   358.55761
          91           5           5   187.73491   351.21987
          92           1           1   297.96549   557.44238
          92           1           2   279.51338   522.92166
          92           1           3   224.86696   420.68756
          92           1           4   191.65710   358.55761
          92           1           5   187.73491   351.21987
          92           2           1   295.79137   553.37497
          92           2           2   276.97289   518.16884
          92           2           3   220.79221   413.06441
          92           2           4   192.78002   360.65839
          92           2           5   190.22335   355.87530
          92           3           1   292.26277   546.77358
          92           3           2   276.21534   516.75157
          92           3           3   216.88413   405.75306
          92           3           4   194.06593   363.06410
          92           3           5   194.02930   362.99557
          92           4           1   291.28500   544.94433
          92           4           2   276.56298   517.40196
          92           4           3   215.97760   404.05710
          92           4           4   194.01405   362.96705
          92           4           5   197.71823   369.89694
          92           5           1   292.20401   546.66365
          92           5           2   276.71325   517.68308
          92           5           3   214.46391   401.22523
          92           5           4   193.40660   361.83061
          92           5           5   198.17669   370.75464
          93           1           1   292.20401   546.66365
          93           1           2   276.71325   517.68308
          93           1           3   214.46391   401.22523
          93           1           4   193.40660   361.83061
          93           1           5   198.17669   370.75464
          93           2           1   293.22119   548.56662
          93           2           2   276.49485   517.27449
          93           2           3   214.88734   402.01740
          93           2           4   193.28424   361.60171
          93           2           5   198.30630   370.99711
          93           3           1   294.17713   550.35502
          93           3           2   272.49631   509.79392
          93           3           3   214.92105   402.08047
          93           3           4   193.47798   361.96417
          93           3           5   195.33833   365.44456
          93           4           1   292.99552   548.14442
          93           4           2   268.52904   502.37184
          93           4           3   212.38851   397.34251
          93           4           4   193.83813   362.63793
          93           4           5   192.14978   359.47932
          93           5           1   290.43541   543.35489
          93           5           2   268.12316   501.61251
          93           5           3   211.40903   395.51008
          93           5           4   193.21367   361.46967
          93           5           5   190.31257   356.04221
          94           1           1   290.43541   543.35489
          94           1           2   268.12316   501.61251
          94           1           3   211.40903   395.51008
          94           1           4   193.21367   361.46967
          94           1           5   190.31257   356.04221
          94           2           1   287.84361   538.50608
          94           2           2   267.81710   501.03991
          94           2           3   211.95956   396.54002
          94           2           4   192.75064   360.60343
          94           2           5   189.85222   355.18098
          94           3           1   284.61214   532.46056
          94           3           2   268.42284   502.17314
          94           3           3   213.35171   399.14450
          94           3           4   192.49433   360.12392
          94           3           5   191.79471   358.81505
          94           4           1   281.96153   527.50172
          94           4           2   271.02025   507.03245
          94           4           3   212.77035   398.05687
          94           4           4   193.56609   362.12899
          94           4           5   193.08203   361.22340
          94           5           1   283.28339   529.97469
          94           5           2   271.01044   507.01411
          94           5           3   212.93779   398.37014
          94           5           4   195.31957   365.40946
          94           5           5   192.59127   360.30527
          95           1           1   283.28339   529.97469
          95           1           2   271.01044   507.01411
          95           1           3   212.93779   398.37014
          95           1           4   195.31957   365.40946
          95           1           5   192.59127   360.30527
          95           2           1   281.83895   527.27240
          95           2           2   271.18315   507.33722
          95           2           3   213.23210   398.92074
          95           2           4   196.51029   367.63709
          95           2           5   192.40803   359.96247
          95           3           1   281.26273   526.19439
          95           3           2   271.02155   507.03490
          95           3           3   211.54981   395.77345
          95           3           4   198.65158   371.64308
          95           3           5   197.54129   369.56592
          95           4           1   285.53573   534.18844
          95           4           2   269.48899   504.16773
          95           4           3   209.87531   392.64075
          95           4           4   204.38465   382.36867
          95           4           5   198.26708   370.92374
          95           5           1   288.67828   540.06761
          95           5           2   269.29703   503.80862
          95           5           3   207.87158   388.89212
          95           5           4   205.76505   384.95116
          95           5           5   197.98087   370.38830
          96           1           1   288.67828   540.06761
          96           1           2   269.29703   503.80862
          96           1           3   207.87158   388.89212
          96           1           4   205.76505   384.95116
          96           1           5   197.98087   370.38830
          96           2           1   291.68106   545.68529
          96           2           2   269.24854   503.71790
          96           2           3   205.46583   384.39138
          96           2           4   206.62765   386.56494
          96           2           5   198.98976   372.27575
          96           3           1   294.98516   551.86671
          96           3           2   266.35082   498.29675
          96           3           3   202.80631   379.41586
          96           3           4   207.46128   388.12451
          96           3           5   201.80114   377.53536
          96           4           1   292.64004   547.47938
          96           4           2   262.29726   490.71323
          96           4           3   203.72431   381.13328
          96           4           4   203.81029   381.29413
          96           4           5   202.99521   379.76926
          96           5           1   291.31830   545.00663
          96           5           2   259.21952   484.95532
          96           5           3   203.28690   380.31497
          96           5           4   202.41906   378.69138
          96           5           5   200.91118   375.87041
          97           1           1   291.31830   545.00663
          97           1           2   259.21952   484.95532
          97           1           3   203.28690   380.31497
          97           1           4   202.41906   378.69138
          97           1           5   200.91118   375.87041
          97           2           1   290.01281   542.56429
          97           2           2   255.43956   477.88365
          97           2           3   202.35170   378.56537
          97           2           4   201.25486   376.51337
          97           2           5   197.70101   369.86472
          97           3           1   286.65433   536.28115
          97           3           2   250.79167   469.18826
          97           3           3   202.25895   378.39185
          97           3           4   202.09037   378.07645
          97           3           5   192.66493   360.44308
          97           4           1   285.09095   533.35633
          97           4           2   253.29066   473.86343
          97           4           3   201.60654   377.17131
          97           4           4   203.70952   381.10561
          97           4           5   183.54977   343.39018
          97           5           1   285.09468   533.36330
          97           5           2   254.11634   475.40814
          97           5           3   203.80357   381.28157
          97           5           4   203.73151   381.14676
          97           5           5   177.58121   332.22402
          98           1           1   285.09468   533.36330
          98           1           2   254.11634   475.40814
          98           1           3   203.80357   381.28157
          98           1           4   203.73151   381.14676
          98           1           5   177.58121   332.22402
          98           2           1   285.52075   534.16041
          98           2           2   254.52742   476.17719
          98           2           3   207.26575   387.75872
          98           2           4   203.29245   380.32534
          98           2           5   171.46770   320.78669
          98           3           1   286.06275   535.17440
          98           3           2   253.93407   475.06715
          98           3           3   213.45344   399.33482
          98           3           4   201.76605   377.46971
          98           3           5   162.54978   304.10280
          98           4           1   285.30101   533.74931
          98           4           2   249.01687   465.86791
          98           4           3   217.51303   406.92963
          98           4           4   197.32326   369.15802
          98           4           5   151.74730   283.89321
          98           5           1   285.97792   535.01570
          98           5           2   246.50870   461.17554
          98           5           3   219.16229   410.01509
          98           5           4   194.96436   364.74491
          98           5           5   148.47970   277.78008
          99           1           1   285.97792   535.01570
          99           1           2   246.50870   461.17554
          99           1           3   219.16229   410.01509
          99           1           4   194.96436   364.74491
          99           1           5   148.47970   277.78008
          99           2           1   287.63104   538.10840
          99           2           2   243.81196   456.13041
          99           2           3   220.61510   412.73306
          99           2           4   190.37133   356.15215
          99           2           5   147.09073   275.18156
          99           3           1   292.31330   546.86811
          99           3           2   241.74011   452.25434
          99           3           3   220.32168   412.18412
          99           3           4   183.60428   343.49215
          99           3           5   145.70841   272.59547
          99           4           1   296.21906   554.17512
          99           4           2   242.81063   454.25710
          99           4           3   219.09072   409.88121
          99           4           4   181.51399   339.58159
          99           4           5   146.31835   273.73657
          99           5           1   296.92057   555.48752
          99           5           2   244.60356   457.61136
          99           5           3   219.40109   410.46186
          99           5           4   180.80852   338.26177
          99           5           5   144.64005   270.59675
         100           1           1   296.92057   555.48752
         100           1           2   244.60356   457.61136
         100           1           3   219.40109   410.46186
         100           1           4   180.80852   338.26177
         100           1           5   144.64005   270.59675
         100           2           1   297.25589   556.11485
         100           2           2   246.75547   461.63722
         100           2           3   219.42250   410.50192
         100           2           4   179.73263   336.24896
         100           2           5   143.49086   268.44682
         100           3           1   298.05359   557.60721
         100           3           2   249.23551   466.27694
         100           3           3   221.94575   415.22247
         100           3           4   177.61302   332.28353
         100           3           5   143.65699   268.75762
         100           4           1   295.33093   552.51358
         100           4           2   251.04085   469.65443
         100           4           3   220.60737   412.71860
         100           4           4   179.30417   335.44739
         100           4           5   144.69037   270.69090
         100           5           1   294.36179   550.70048
         100           5           2   251.68958   470.86809
         100           5           3   217.24155   406.42173
         100           5           4   180.63586   337.93876
         100           5           5   146.43290   273.95087
         101           1           1   294.36179   550.70048
         101           1           2   251.68958   470.86809
         101           1           3   217.24155   406.42173
         101           1           4   180.63586   337.93876
         101           1           5   146.43290   273.95087
         101           2           1   294.56758   551.08547
         101           2           2   252.52582   472.43256
         101           2           3   216.09740   404.28122
         101           2           4   182.46727   341.36500
         101           2           5   148.60075   278.00655
         101           3           1   293.71999   549.49978
         101           3           2   252.95512   473.23570
         101           3           3   213.50963   399.43993
         101           3           4   184.38581   344.95426
         101           3           5   152.75146   285.77181
         101           4           1   290.99594   544.40355
         101           4           2   250.77734   469.16144
         101           4           3   206.49538   386.31749
         101           4           4   185.80196   347.60364
         101           4           5   158.68450   296.87152
         101           5           1   289.17309   540.99332
         101           5           2   248.22731   464.39078
         101           5           3   204.88464   383.30407
         101           5           4   185.76008   347.52530
         101           5           5   160.53006   300.32424
         102           1           1   289.17309   540.99332
         102           1           2   248.22731   464.39078
         102           1           3   204.88464   383.30407
         102           1           4   185.76008   347.52530
         102           1           5   160.53006   300.32424
         102           2           1   286.57325   536.12947
         102           2           2   244.73033   457.84852
         102           2           3   203.20176   380.15568
         102           2           4   186.94501   349.74210
         102           2           5   163.02038   304.98320
         102           3           1   281.67737   526.97012
         102           3           2   239.88810   448.78953
         102           3           3   199.10443   372.49029
         102           3           4   188.62962   352.89371
         102           3           5   170.63827   319.23498
         102           4           1   281.69172   526.99696
         102           4           2   234.07078   437.90634
         102           4           3   205.02659   383.56963
         102           4           4   188.07604   351.85804
         102           4           5   174.00910   325.54121
         102           5           1   282.50149   528.51189
         102           5           2   229.00360   428.42651
         102           5           3   207.43244   388.07056
         102           5           4   187.53875   350.85287
         102           5           5   174.46685   326.39758
         103           1           1   282.50149   528.51189
         103           1           2   229.00360   428.42651
         103           1           3   207.43244   388.07056
         103           1           4   187.53875   350.85287
         103           1           5   174.46685   326.39758
         103           2           1   283.69693   530.74836
         103           2           2   225.23604   421.37804
         103           2           3   207.13054   387.50576
         103           2           4   186.91150   349.67940
         103           2           5   175.64162   328.59538
         103           3           1   286.15702   535.35076
         103           3           2   221.98083   415.28811
         103           3           3   208.23773   389.57711
         103           3           4   186.70668   349.29621
         103           3           5   173.89126   325.32076
         103           4           1   284.97806   533.14514
         103           4           2   223.85309   418.79078
         103           4           3   208.54747   390.15659
         103           4           4   187.41894   350.62874
         103           4           5   171.96757   321.72186
         103           5           1   284.95217   533.09670
         103           5           2   225.38030   421.64792
         103           5           3   208.55074   390.16270
         103           5           4   188.93239   353.46013
         103           5           5   171.49515   320.83805
         104           1           1   284.95217   533.09670
         104           1           2   225.38030   421.64792
         104           1           3   208.55074   390.16270
         104           1           4   188.93239   353.46013
         104           1           5   171.49515   320.83805
         104           2           1   287.39291   537.66290
         104           2           2   229.88235   430.07049
         104           2           3   209.78545   392.47263
         104           2           4   192.03640   359.26720
         104           2           5   171.64093   321.11078
         104           3           1   294.99426   551.88373
         104           3           2   238.55385   446.29339
         104           3           3   214.36660   401.04318
         104           3           4   197.75003   369.95642
         104           3           5   170.92499   319.77137
         104           4           1   305.19886   570.97478
         104           4           2   249.27933   466.35893
         104           4           3   217.32423   406.57640
         104           4           4   202.79530   379.39527
         104           4           5   173.95539   325.44074
         104           5           1   308.44451   577.04684
         104           5           2   255.23593   477.50270
         104           5           3   218.59918   408.96161
         104           5           4   206.51571   386.35552
         104           5           5   174.68603   326.80763
         105           1           1   308.44451   577.04684
         105           1           2   255.23593   477.50270
         105           1           3   218.59918   408.96161
         105           1           4   206.51571   386.35552
         105           1           5   174.68603   326.80763
         105           2           1   313.12031   585.79447
         105           2           2   260.09782   486.59846
         105           2           3   222.16017   415.62363
         105           2           4   208.94512   390.90052
         105           2           5   177.37932   331.84631
         105           3           1   316.34500   591.82731
         105           3           2   269.56962   504.31858
         105           3           3   228.14686   426.82368
         105           3           4   213.25954   398.97206
         105           3           5   181.78327   340.08536
         105           4           1   318.49903   595.85712
         105           4           2   279.46556   522.83220
         105           4           3   234.11472   437.98853
         105           4           4   218.12127   408.06753
         105           4           5   188.37177   352.41131
         105           5           1   319.60619   597.92842
         105           5           2   283.32208   530.04707
         105           5           3   236.06422   441.63573
         105           5           4   220.15361   411.86969
         105           5           5   190.89136   357.12503
         106           1           1   319.60619   597.92842
         106           1           2   283.32208   530.04707
         106           1           3   236.06422   441.63573
         106           1           4   220.15361   411.86969
         106           1           5   190.89136   357.12503
         106           2           1   319.94768   598.56730
         106           2           2   287.93990   538.68623
         106           2           3   235.83019   441.19789
         106           2           4   221.14386   413.72227
         106           2           5   194.25956   363.42636
         106           3           1   323.55091   605.30832
         106           3           2   296.75912   555.18547
         106           3           3   238.34786   445.90801
         106           3           4   223.35859   417.86566
         106           3           5   198.80182   371.92416
         106           4           1   326.60110   611.01470
         106           4           2   304.49587   569.65961
         106           4           3   245.79221   459.83512
         106           4           4   227.80679   426.18747
         106           4           5   203.46416   380.64660
         106           5           1   329.47552   616.39225
         106           5           2   307.98322   576.18385
         106           5           3   247.88060   463.74215
         106           5           4   229.65565   429.64638
         106           5           5   205.99486   385.38110
         107           1           1   329.47552   616.39225
         107           1           2   307.98322   576.18385
         107           1           3   247.88060   463.74215
         107           1           4   229.65565   429.64638
         107           1           5   205.99486   385.38110
         107           2           1   332.41777   621.89670
         107           2           2   309.18254   578.42756
         107           2           3   248.21356   464.36504
         107           2           4   231.77687   433.61482
         107           2           5   209.26214   391.49361
         107           3           1   334.58602   625.95312
         107           3           2   312.78069   585.15909
         107           3           3   253.10436   473.51489
         107           3           4   236.12330   441.74624
         107           3           5   212.92294   398.34234
         107           4           1   342.18057   640.16124
         107           4           2   319.77612   598.24633
         107           4           3   257.29685   481.35833
         107           4           4   239.03398   447.19163
         107           4           5   217.91978   407.69058
         107           5           1   345.86501   647.05418
         107           5           2   321.95526   602.32315
         107           5           3   260.86816   488.03964
         107           5           4   240.60021   450.12177
         107           5           5   220.88358   413.23534
         108           1           1   345.86501   647.05418
         108           1           2   321.95526   602.32315
         108           1           3   260.86816   488.03964
         108           1           4   240.60021   450.12177
         108           1           5   220.88358   413.23534
         108           2           1   350.30333   655.35752
         108           2           2   325.10305   608.21211
         108           2           3   264.59412   495.01028
         108           2           4   242.59904   453.86125
         108           2           5   223.72566   418.55239
         108           3           1   360.32935   674.11449
         108           3           2   329.71890   616.84757
         108           3           3   275.17831   514.81147
         108           3           4   246.95743   462.01504
         108           3           5   230.55737   431.33334
         108           4           1   365.04134   682.92982
         108           4           2   335.28256   627.25623
         108           4           3   286.38693   535.78088
         108           4           4   253.76508   474.75099
         108           4           5   236.22127   441.92953
         108           5           1   366.02541   684.77083
         108           5           2   337.50263   631.40961
         108           5           3   291.91107   546.11560
         108           5           4   257.97643   482.62971
         108           5           5   236.65757   442.74576
         109           1           1   224.34903   419.71860
         109           1           2   223.01638   417.22544
         109           1           3   192.16095   359.50021
         109           1           4   163.15943   305.24334
         109           1           5   168.90362   315.98973
         109           2           1   221.54273   414.46850
         109           2           2   221.64590   414.66150
         109           2           3   186.56672   349.03437
         109           2           4   162.79005   304.55230
         109           2           5   170.35699   318.70875
         109           3           1   217.51800   406.93892
         109           3           2   216.75432   405.51021
         109           3           3   182.73581   341.86739
         109           3           4   163.82418   306.48698
         109           3           5   171.02438   319.95732
         109           4           1   212.57763   397.69633
         109           4           2   212.64360   397.81976
         109           4           3   181.33625   339.24907
         109           4           4   162.78684   304.54629
         109           4           5   170.13376   318.29112
         109           5           1   213.23626   398.92851
         109           5           2   210.46062   393.73577
         109           5           3   179.40088   335.62832
         109           5           4   158.83577   297.15451
         109           5           5   168.08831   314.46444
         110           1           1   213.23626   398.92851
         110           1           2   210.46062   393.73577
         110           1           3   179.40088   335.62832
         110           1           4   158.83577   297.15451
         110           1           5   168.08831   314.46444
         110           2           1   213.84294   400.06350
         110           2           2   207.16269   387.56591
         110           2           3   178.02110   333.04698
         110           2           4   154.68850   289.39568
         110           2           5   164.81578   308.34209
         110           3           1   218.04064   407.91668
         110           3           2   203.25104   380.24788
         110           3           3   175.23325   327.83139
         110           3           4   148.90262   278.57129
         110           3           5   156.81864   293.38081
         110           4           1   220.14845   411.86003
         110           4           2   200.22788   374.59207
         110           4           3   173.72525   325.01019
         110           4           4   146.66575   274.38650
         110           4           5   151.52797   283.48288
         110           5           1   220.62962   412.76022
         110           5           2   195.07728   364.95617
         110           5           3   171.28294   320.44104
         110           5           4   147.21864   275.42085
         110           5           5   149.96676   280.56211
         111           1           1   220.62962   412.76022
         111           1           2   195.07728   364.95617
         111           1           3   171.28294   320.44104
         111           1           4   147.21864   275.42085
         111           1           5   149.96676   280.56211
         111           2           1   221.46921   414.33096
         111           2           2   190.13135   355.70319
         111           2           3   169.78280   317.63452
         111           2           4   147.65119   276.23008
         111           2           5   148.56324   277.93637
         111           3           1   220.55510   412.62081
         111           3           2   183.51825   343.33120
         111           3           3   170.08216   318.19459
         111           3           4   149.56875   279.81752
         111           3           5   148.38026   277.59406
         111           4           1   217.04026   406.04514
         111           4           2   175.01317   327.41967
         111           4           3   168.39938   315.04638
         111           4           4   150.65223   281.84451
         111           4           5   147.12536   275.24635
         111           5           1   212.84537   398.19723
         111           5           2   170.71553   319.37950
         111           5           3   167.03025   312.48498
         111           5           4   151.09138   282.66610
         111           5           5   143.47305   268.41351
         112           1           1   212.84537   398.19723
         112           1           2   170.71553   319.37950
         112           1           3   167.03025   312.48498
         112           1           4   151.09138   282.66610
         112           1           5   143.47305   268.41351
         112           2           1   208.45000   389.97423
         112           2           2   168.88307   315.95129
         112           2           3   166.31514   311.14714
         112           2           4   151.53054   283.48768
         112           2           5   140.45477   262.76681
         112           3           1   199.79081   373.77439
         112           3           2   165.27042   309.19265
         112           3           3   162.07336   303.21148
         112           3           4   149.97400   280.57565
         112           3           5   135.12078   252.78784
         112           4           1   193.80076   362.56803
         112           4           2   160.35449   299.99578
         112           4           3   160.33617   299.96151
         112           4           4   147.05866   275.12155
         112           4           5   133.22270   249.23686
         112           5           1   193.66869   362.32094
         112           5           2   159.55355   298.49736
         112           5           3   159.36867   298.15148
         112           5           4   145.37063   271.96354
         112           5           5   134.33215   251.31244
         113           1           1   193.66869   362.32094
         113           1           2   159.55355   298.49736
         113           1           3   159.36867   298.15148
         113           1           4   145.37063   271.96354
         113           1           5   134.33215   251.31244
         113           2           1   192.46567   360.07030
         113           2           2   158.51488   296.55419
         113           2           3   158.28332   296.12098
         113           2           4   143.68260   268.80553
         113           2           5   134.96171   252.49025
         113           3           1   191.35605   357.99438
         113           3           2   158.72275   296.94308
         113           3           3   154.14687   288.38238
         113           3           4   137.52638   257.28829
         113           3           5   135.99093   254.41574
         113           4           1   189.31605   354.17790
         113           4           2   160.42150   300.12114
         113           4           3   150.26036   281.11139
         113           4           4   133.40501   249.57792
         113           4           5   138.24408   258.63099
         113           5           1   187.05933   349.95597
         113           5           2   162.12663   303.31116
         113           5           3   148.71985   278.22937
         113           5           4   129.41485   242.11301
         113           5           5   139.39702   260.78794
         114           1           1   187.05933   349.95597
         114           1           2   162.12663   303.31116
         114           1           3   148.71985   278.22937
         114           1           4   129.41485   242.11301
         114           1           5   139.39702   260.78794
         114           2           1   186.67956   349.24547
         114           2           2   163.93533   306.69491
         114           2           3   146.96460   274.94558
         114           2           4   125.42469   234.64811
         114           2           5   139.27749   260.56433
         114           3           1   184.21656   344.63763
         114           3           2   168.88021   315.94593
         114           3           3   147.74786   276.41094
         114           3           4   119.23829   223.07441
         114           3           5   137.17062   256.62273
         114           4           1   181.30876   339.19764
         114           4           2   168.86012   315.90837
         114           4           3   147.24477   275.46974
         114           4           4   116.56871   218.08010
         114           4           5   131.73501   246.45363
         114           5           1   178.86923   334.63369
         114           5           2   170.69113   319.33387
         114           5           3   148.21836   277.29116
         114           5           4   115.22708   215.57013
         114           5           5   128.57374   240.53944
         115           1           1   178.86923   334.63369
         115           1           2   170.69113   319.33387
         115           1           3   148.21836   277.29116
         115           1           4   115.22708   215.57013
         115           1           5   128.57374   240.53944
         115           2           1   176.99319   331.12394
         115           2           2   169.43309   316.98028
         115           2           3   150.11850   280.84601
         115           2           4   113.88545   213.06017
         115           2           5   125.84085   235.42667
         115           3           1   180.15304   337.03548
         115           3           2   167.82193   313.96608
         115           3           3   151.09554   282.67387
         115           3           4   113.41419   212.17852
         115           3           5   120.29603   225.05327
         115           4           1   184.67370   345.49285
         115           4           2   168.69153   315.59296
         115           4           3   150.90819   282.32337
         115           4           4   114.95471   215.06056
         115           4           5   116.30728   217.59100
         115           5           1   187.73491   351.21987
         115           5           2   168.98043   316.13343
         115           5           3   150.49570   281.55168
         115           5           4   116.52346   217.99544
         115           5           5   111.65445   208.88635
         116           1           1   187.73491   351.21987
         116           1           2   168.98043   316.13343
         116           1           3   150.49570   281.55168
         116           1           4   116.52346   217.99544
         116           1           5   111.65445   208.88635
         116           2           1   190.22335   355.87530
         116           2           2   170.75513   319.45360
         116           2           3   150.00587   280.63528
         116           2           4   116.64725   218.22702
         116           2           5   108.05560   202.15351
         116           3           1   194.02930   362.99557
         116           3           2   174.11925   325.74729
         116           3           3   148.97561   278.70785
         116           3           4   114.68474   214.55550
         116           3           5   103.88438   194.34987
         116           4           1   197.71823   369.89694
         116           4           2   175.86768   329.01830
         116           4           3   148.31846   277.47844
         116           4           4   112.21743   209.93959
         116           4           5   103.16801   193.00968
         116           5           1   198.17669   370.75464
         116           5           2   178.00601   333.01876
         116           5           3   148.35134   277.53994
         116           5           4   114.57843   214.35661
         116           5           5   107.43477   200.99205
         117           1           1   198.17669   370.75464
         117           1           2   178.00601   333.01876
         117           1           3   148.35134   277.53994
         117           1           4   114.57843   214.35661
         117           1           5   107.43477   200.99205
         117           2           1   198.30630   370.99711
         117           2           2   180.30064   337.31161
         117           2           3   148.57641   277.96102
         117           2           4   117.04705   218.97499
         117           2           5   111.31367   208.24880
         117           3           1   195.33833   365.44456
         117           3           2   185.73068   347.47029
         117           3           3   148.98455   278.72456
         117           3           4   120.69506   225.79978
         117           3           5   119.16907   222.94492
         117           4           1   192.14978   359.47932
         117           4           2   189.85745   355.19076
         117           4           3   145.87768   272.91215
         117           4           4   127.14590   237.86820
         117           4           5   127.80392   239.09924
         117           5           1   190.31257   356.04221
         117           5           2   192.28268   359.72796
         117           5           3   145.85668   272.87286
         117           5           4   131.87705   246.71937
         117           5           5   132.36994   247.64148
         118           1           1   190.31257   356.04221
         118           1           2   192.28268   359.72796
         118           1           3   145.85668   272.87286
         118           1           4   131.87705   246.71937
         118           1           5   132.36994   247.64148
         118           2           1   189.85222   355.18098
         118           2           2   194.22098   363.35418
         118           2           3   144.57091   270.46741
         118           2           4   136.79367   255.91752
         118           2           5   136.05838   254.54192
         118           3           1   191.79471   358.81505
         118           3           2   197.99453   370.41384
         118           3           3   143.28153   268.05520
         118           3           4   143.73981   268.91257
         118           3           5   142.84674   267.24178
         118           4           1   193.08203   361.22340
         118           4           2   198.73387   371.79702
         118           4           3   143.89905   269.21048
         118           4           4   151.25856   282.97885
         118           4           5   153.53388   287.23559
         118           5           1   192.59127   360.30527
         118           5           2   197.93148   370.29589
         118           5           3   144.79430   270.88534
         118           5           4   153.89655   287.91408
         118           5           5   160.16136   299.63446
         119           1           1   192.59127   360.30527
         119           1           2   197.93148   370.29589
         119           1           3   144.79430   270.88534
         119           1           4   153.89655   287.91408
         119           1           5   160.16136   299.63446
         119           2           1   192.40803   359.96247
         119           2           2   197.11860   368.77514
         119           2           3   145.67612   272.53506
         119           2           4   156.18314   292.19190
         119           2           5   165.53460   309.68687
         119           3           1   197.54129   369.56592
         119           3           2   194.75930   364.36129
         119           3           3   146.67704   274.40761
         119           3           4   159.63795   298.65526
         119           3           5   173.24613   324.11384
         119           4           1   198.26708   370.92374
         119           4           2   190.86681   357.07911
         119           4           3   150.17442   280.95061
         119           4           4   159.94827   299.23581
         119           4           5   180.12022   336.97409
         119           5           1   197.98087   370.38830
         119           5           2   189.67251   354.84477
         119           5           3   150.14561   280.89672
         119           5           4   160.42366   300.12519
         119           5           5   184.30555   344.80410
         120           1           1   197.98087   370.38830
         120           1           2   189.67251   354.84477
         120           1           3   150.14561   280.89672
         120           1           4   160.42366   300.12519
         120           1           5   184.30555   344.80410
         120           2           1   198.98976   372.27575
         120           2           2   188.84908   353.30428
         120           2           3   150.70537   281.94393
         120           2           4   160.58364   300.42448
         120           2           5   189.75840   355.00546
         120           3           1   201.80114   377.53536
         120           3           2   182.95296   342.27364
         120           3           3   151.56573   283.55352
         120           3           4   161.79360   302.68810
         120           3           5   199.36166   372.97151
         120           4           1   202.99521   379.76926
         120           4           2   181.99763   340.48639
         120           4           3   150.34712   281.27371
         120           4           4   167.49996   313.36373
         120           4           5   204.53311   382.64642
         120           5           1   200.91118   375.87041
         120           5           2   178.87682   334.64788
         120           5           3   150.55291   281.65871
         120           5           4   169.31304   316.75569
         120           5           5   205.91219   385.22644
         121           1           1   200.91118   375.87041
         121           1           2   178.87682   334.64788
         121           1           3   150.55291   281.65871
         121           1           4   169.31304   316.75569
         121           1           5   205.91219   385.22644
         121           2           1   197.70101   369.86472
         121           2           2   176.31081   329.84732
         121           2           3   150.51574   281.58917
         121           2           4   174.45219   326.37016
         121           2           5   207.00539   387.27162
         121           3           1   192.66493   360.44308
         121           3           2   171.26597   320.40929
         121           3           3   146.92244   274.86671
         121           3           4   182.28181   341.01805
         121           3           5   211.97129   396.56198
         121           4           1   183.54977   343.39018
         121           4           2   160.90592   301.02740
         121           4           3   144.32228   270.00226
         121           4           4   186.46140   348.83734
         121           4           5   217.17320   406.29386
         121           5           1   177.58121   332.22402
         121           5           2   155.36665   290.66439
         121           5           3   141.53665   264.79082
         121           5           4   186.91377   349.68365
         121           5           5   220.42698   412.38111
         122           1           1   177.58121   332.22402
         122           1           2   155.36665   290.66439
         122           1           3   141.53665   264.79082
         122           1           4   186.91377   349.68365
         122           1           5   220.42698   412.38111
         122           2           1   171.46770   320.78669
         122           2           2   149.92703   280.48778
         122           2           3   138.82398   259.71589
         122           2           4   186.71999   349.32111
         122           2           5   223.54177   418.20836
         122           3           1   162.54978   304.10280
         122           3           2   142.53497   266.65852
         122           3           3   136.69908   255.74056
         122           3           4   185.50943   347.05637
         122           3           5   226.77833   424.26340
         122           4           1   151.74730   283.89321
         122           4           2   134.93266   252.43589
         122           4           3   135.96243   254.36241
         122           4           4   183.82536   343.90576
         122           4           5   230.31967   430.88865
         122           5           1   148.47970   277.78008
         122           5           2   135.56024   253.60998
         122           5           3   137.59710   257.42061
         122           5           4   183.22941   342.79083
         122           5           5   230.84605   431.87342
         123           1           1   148.47970   277.78008
         123           1           2   135.56024   253.60998
         123           1           3   137.59710   257.42061
         123           1           4   183.22941   342.79083
         123           1           5   230.84605   431.87342
         123           2           1   147.09073   275.18156
         123           2           2   137.08685   256.46601
         123           2           3   140.52644   262.90089
         123           2           4   182.15507   340.78093
         123           2           5   229.93386   430.16686
         123           3           1   145.70841   272.59547
         123           3           2   138.95438   259.95983
         123           3           3   143.87617   269.16767
         123           3           4   181.08545   338.77985
         123           3           5   228.60886   427.68802
         123           4           1   146.31835   273.73657
         123           4           2   143.10842   267.73135
         123           4           3   148.02979   276.93837
         123           4           4   183.85876   343.96824
         123           4           5   227.60518   425.81031
         123           5           1   144.64005   270.59675
         123           5           2   143.43546   268.34317
         123           5           3   152.11566   284.58233
         123           5           4   185.50061   347.03986
         123           5           5   227.25998   425.16450
         124           1           1   144.64005   270.59675
         124           1           2   143.43546   268.34317
         124           1           3   152.11566   284.58233
         124           1           4   185.50061   347.03986
         124           1           5   227.25998   425.16450
         124           2           1   143.49086   268.44682
         124           2           2   143.20068   267.90394
         124           2           3   156.67277   293.10792
         124           2           4   187.28400   350.37628
         124           2           5   226.94453   424.57434
         124           3           1   143.65699   268.75762
         124           3           2   142.81664   267.18546
         124           3           3   163.06124   305.05964
         124           3           4   191.88222   358.97876
         124           3           5   225.39225   421.67029
         124           4           1   144.69037   270.69090
         124           4           2   140.42078   262.70323
         124           4           3   167.40278   313.18193
         124           4           4   196.57907   367.76577
         124           4           5   223.79082   418.67428
         124           5           1   146.43290   273.95087
         124           5           2   140.91164   263.62154
         124           5           3   169.18669   316.51931
         124           5           4   198.83074   371.97826
         124           5           5   223.31832   417.79031
         125           1           1   146.43290   273.95087
         125           1           2   140.91164   263.62154
         125           1           3   169.18669   316.51931
         125           1           4   198.83074   371.97826
         125           1           5   223.31832   417.79031
         125           2           1   148.60075   278.00655
         125           2           2   143.89910   269.21057
         125           2           3   170.98540   319.88439
         125           2           4   199.01031   372.31419
         125           2           5   222.17270   415.64705
         125           3           1   152.75146   285.77181
         125           3           2   149.50512   279.69847
         125           3           3   173.36446   324.33520
         125           3           4   199.69102   373.58768
         125           3           5   223.55913   418.24084
         125           4           1   158.68450   296.87152
         125           4           2   156.62893   293.02590
         125           4           3   175.67882   328.66498
         125           4           4   203.40053   380.52755
         125           4           5   225.52980   421.92763
         125           5           1   160.53006   300.32424
         125           5           2   159.26762   297.96244
         125           5           3   176.58480   330.35991
         125           5           4   204.00488   381.65819
         125           5           5   225.96712   422.74577
         126           1           1   160.53006   300.32424
         126           1           2   159.26762   297.96244
         126           1           3   176.58480   330.35991
         126           1           4   204.00488   381.65819
         126           1           5   225.96712   422.74577
         126           2           1   163.02038   304.98320
         126           2           2   161.40261   301.95664
         126           2           3   177.41746   331.91767
         126           2           4   207.09068   387.43118
         126           2           5   228.41919   427.33317
         126           3           1   170.63827   319.23498
         126           3           2   164.11526   307.03155
         126           3           3   177.14465   331.40729
         126           3           4   213.95010   400.26399
         126           3           5   232.86404   435.64873
         126           4           1   174.00910   325.54121
         126           4           2   167.05490   312.53111
         126           4           3   178.56988   334.07366
         126           4           4   218.21372   408.24048
         126           4           5   239.13096   447.37306
         126           5           1   174.46685   326.39758
         126           5           2   169.19657   316.53780
         126           5           3   179.12727   335.11644
         126           5           4   221.00823   413.46854
         126           5           5   242.82212   454.27859
         127           1           1   174.46685   326.39758
         127           1           2   169.19657   316.53780
         127           1           3   179.12727   335.11644
         127           1           4   221.00823   413.46854
         127           1           5   242.82212   454.27859
         127           2           1   175.64162   328.59538
         127           2           2   171.76450   321.34195
         127           2           3   180.15117   337.03198
         127           2           4   224.92301   420.79243
         127           2           5   246.87127   461.85386
         127           3           1   173.89126   325.32076
         127           3           2   174.72378   326.87827
         127           3           3   189.31130   354.16902
         127           3           4   233.42240   436.69333
         127           3           5   253.35098   473.97628
         127           4           1   171.96757   321.72186
         127           4           2   177.93973   332.89476
         127           4           3   198.95048   372.20226
         127           4           4   243.34991   455.26599
         127           4           5   260.63705   487.60727
         127           5           1   171.49515   320.83805
         127           5           2   180.36777   337.43721
         127           5           3   202.08178   378.06040
         127           5           4   247.86276   463.70876
         127           5           5   263.79987   493.52436
         128           1           1   171.49515   320.83805
         128           1           2   180.36777   337.43721
         128           1           3   202.08178   378.06040
         128           1           4   247.86276   463.70876
         128           1           5   263.79987   493.52436
         128           2           1   171.64093   321.11078
         128           2           2   183.36939   343.05273
         128           2           3   203.66378   381.02004
         128           2           4   251.47322   470.46332
         128           2           5   268.38650   502.10517
         128           3           1   170.92499   319.77137
         128           3           2   187.09898   350.03013
         128           3           3   202.23420   378.34554
         128           3           4   258.26106   483.16221
         128           3           5   273.16471   511.04437
         128           4           1   173.95539   325.44074
         128           4           2   186.03565   348.04083
         128           4           3   199.84513   373.87601
         128           4           4   259.76183   485.96989
         128           4           5   274.96111   514.40513
         128           5           1   174.68603   326.80763
         128           5           2   185.74779   347.50229
         128           5           3   199.88789   373.95599
         128           5           4   261.51051   489.24136
         128           5           5   278.53396   521.08932
         129           1           1   174.68603   326.80763
         129           1           2   185.74779   347.50229
         129           1           3   199.88789   373.95599
         129           1           4   261.51051   489.24136
         129           1           5   278.53396   521.08932
         129           2           1   177.37932   331.84631
         129           2           2   186.65707   349.20340
         129           2           3   203.40962   380.54455
         129           2           4   263.00126   492.03031
         129           2           5   280.68573   525.11492
         129           3           1   181.78327   340.08536
         129           3           2   188.69582   353.01755
         129           3           3   202.59744   379.02510
         129           3           4   265.99220   497.62583
         129           3           5   284.06599   531.43881
         129           4           1   188.37177   352.41131
         129           4           2   193.73222   362.43979
         129           4           3   206.11145   385.59921
         129           4           4   265.91649   497.48421
         129           4           5   288.54851   539.82482
         129           5           1   190.89136   357.12503
         129           5           2   197.27495   369.06764
         129           5           3   205.60765   384.65669
         129           5           4   266.17675   497.97109
         129           5           5   290.52613   543.52463
         130           1           1   190.89136   357.12503
         130           1           2   197.27495   369.06764
         130           1           3   205.60765   384.65669
         130           1           4   266.17675   497.97109
         130           1           5   290.52613   543.52463
         130           2           1   194.25956   363.42636
         130           2           2   200.56734   375.22713
         130           2           3   207.24199   387.71427
         130           2           4   267.48154   500.41215
         130           2           5   291.20136   544.78785
         130           3           1   198.80182   371.92416
         130           3           2   203.67427   381.03967
         130           3           3   212.18827   396.96790
         130           3           4   270.07253   505.25945
         130           3           5   293.47209   549.03600
         130           4           1   203.46416   380.64660
         130           4           2   202.85174   379.50086
         130           4           3   218.53133   408.83469
         130           4           4   271.35733   507.66308
         130           4           5   291.23530   544.85135
         130           5           1   205.99486   385.38110
         130           5           2   205.92509   385.25056
         130           5           3   218.83138   409.39602
         130           5           4   272.35528   509.53007
         130           5           5   289.32843   541.28393
         131           1           1   205.99486   385.38110
         131           1           2   205.92509   385.25056
         131           1           3   218.83138   409.39602
         131           1           4   272.35528   509.53007
         131           1           5   289.32843   541.28393
         131           2           1   209.26214   391.49361
         131           2           2   207.92353   388.98931
         131           2           3   222.06759   415.45042
         131           2           4   273.88981   512.40092
         131           2           5   287.04806   537.01774
         131           3           1   212.92294   398.34234
         131           3           2   212.44016   397.43914
         131           3           3   225.19296   421.29745
         131           3           4   276.18872   516.70178
         131           3           5   288.90506   540.49188
         131           4           1   217.91978   407.69058
         131           4           2   219.64136   410.91135
         131           4           3   228.13674   426.80476
         131           4           4   279.95350   523.74504
         131           4           5   290.07949   542.68904
         131           5           1   220.88358   413.23534
         131           5           2   224.96499   420.87097
         131           5           3   229.40905   429.18503
         131           5           4   280.80323   525.33473
         131           5           5   289.11655   540.88754
         132           1           1   220.88358   413.23534
         132           1           2   224.96499   420.87097
         132           1           3   229.40905   429.18503
         132           1           4   280.80323   525.33473
         132           1           5   289.11655   540.88754
         132           2           1   223.72566   418.55239
         132           2           2   229.85955   430.02785
         132           2           3   228.97398   428.37109
         132           2           4   281.33189   526.32377
         132           2           5   289.05053   540.76402
         132           3           1   230.55737   431.33334
         132           3           2   234.56347   438.82808
         132           3           3   231.14693   432.43630
         132           3           4   283.09260   529.61775
         132           3           5   288.31914   539.39572
         132           4           1   236.22127   441.92953
         132           4           2   239.85741   448.73212
         132           4           3   234.34892   438.42669
         132           4           4   281.08284   525.85784
         132           4           5   286.20535   535.44117
         132           5           1   236.65757   442.74576
         132           5           2   242.77709   454.19435
         132           5           3   235.20027   440.01942
         132           5           4   279.51531   522.92526
         132           5           5   285.28632   533.72183
         133           1           1   168.90362   315.98973
         133           1           2   194.16708   363.25335
         133           1           3   210.29904   393.43348
         133           1           4   206.15998   385.69001
         133           1           5   220.47209   412.46552
         133           2           1   170.35699   318.70875
         133           2           2   195.41851   365.59455
         133           2           3   209.96034   392.79983
         133           2           4   205.18096   383.85843
         133           2           5   220.64236   412.78406
         133           3           1   171.02438   319.95732
         133           3           2   189.01799   353.62027
         133           3           3   207.05768   387.36945
         133           3           4   206.06970   385.52111
         133           3           5   220.21579   411.98602
         133           4           1   170.13376   318.29112
         133           4           2   181.07463   338.75962
         133           4           3   203.88334   381.43080
         133           4           4   209.05180   391.10011
         133           4           5   223.03426   417.25889
         133           5           1   168.08831   314.46444
         133           5           2   175.79348   328.87948
         133           5           3   202.57439   378.98197
         133           5           4   207.79515   388.74912
         133           5           5   222.96512   417.12954
         134           1           1   168.08831   314.46444
         134           1           2   175.79348   328.87948
         134           1           3   202.57439   378.98197
         134           1           4   207.79515   388.74912
         134           1           5   222.96512   417.12954
         134           2           1   164.81578   308.34209
         134           2           2   170.65594   319.26803
         134           2           3   202.04029   377.98277
         134           2           4   206.82546   386.93500
         134           2           5   224.61046   420.20769
         134           3           1   156.81864   293.38081
         134           3           2   163.35643   305.61189
         134           3           3   202.93443   379.65555
         134           3           4   206.90425   387.08241
         134           3           5   227.26657   425.17682
         134           4           1   151.52797   283.48288
         134           4           2   155.17990   290.31501
         134           4           3   196.02477   366.72876
         134           4           4   205.10150   383.70977
         134           4           5   228.35262   427.20864
         134           5           1   149.96676   280.56211
         134           5           2   154.12670   288.34466
         134           5           3   191.79781   358.82085
         134           5           4   206.01379   385.41651
         134           5           5   228.23247   426.98385
         135           1           1   149.96676   280.56211
         135           1           2   154.12670   288.34466
         135           1           3   191.79781   358.82085
         135           1           4   206.01379   385.41651
         135           1           5   228.23247   426.98385
         135           2           1   148.56324   277.93637
         135           2           2   153.07351   286.37431
         135           2           3   189.82005   355.12081
         135           2           4   206.97564   387.21598
         135           2           5   228.25824   427.03206
         135           3           1   148.38026   277.59406
         135           3           2   148.18675   277.23202
         135           3           3   187.51310   350.80489
         135           3           4   211.06817   394.87239
         135           3           5   228.32096   427.14940
         135           4           1   147.12536   275.24635
         135           4           2   140.06513   262.03787
         135           4           3   186.17714   348.30554
         135           4           4   214.45776   401.21374
         135           4           5   228.43682   427.36615
         135           5           1   143.47305   268.41351
         135           5           2   134.65370   251.91401
         135           5           3   184.42278   345.02343
         135           5           4   217.24183   406.42225
         135           5           5   228.67606   427.81373
         136           1           1   143.47305   268.41351
         136           1           2   134.65370   251.91401
         136           1           3   184.42278   345.02343
         136           1           4   217.24183   406.42225
         136           1           5   228.67606   427.81373
         136           2           1   140.45477   262.76681
         136           2           2   129.24228   241.79016
         136           2           3   185.58470   347.19717
         136           2           4   221.79677   414.94376
         136           2           5   230.26380   430.78413
         136           3           1   135.12078   252.78784
         136           3           2   126.06506   235.84612
         136           3           3   187.77032   351.28610
         136           3           4   228.71031   427.87780
         136           3           5   230.87488   431.92735
         136           4           1   133.22270   249.23686
         136           4           2   124.02783   232.03483
         136           4           3   187.71367   351.18013
         136           4           4   232.22129   434.44626
         136           4           5   230.89831   431.97117
         136           5           1   134.33215   251.31244
         136           5           2   124.81541   233.50825
         136           5           3   187.08675   350.00726
         136           5           4   232.74544   435.42685
         136           5           5   228.68444   427.82941
         137           1           1   134.33215   251.31244
         137           1           2   124.81541   233.50825
         137           1           3   187.08675   350.00726
         137           1           4   232.74544   435.42685
         137           1           5   228.68444   427.82941
         137           2           1   134.96171   252.49025
         137           2           2   126.05066   235.81919
         137           2           3   186.97738   349.80265
         137           2           4   230.80355   431.79391
         137           2           5   227.28189   425.20548
         137           3           1   135.99093   254.41574
         137           3           2   127.67491   238.85789
         137           3           3   188.79595   353.20488
         137           3           4   229.44344   429.24937
         137           3           5   229.12156   428.64718
         137           4           1   138.24408   258.63099
         137           4           2   127.20105   237.97137
         137           4           3   190.32678   356.06879
         137           4           4   224.00560   419.07611
         137           4           5   230.19496   430.65534
         137           5           1   139.39702   260.78794
         137           5           2   127.31350   238.18176
         137           5           3   193.29322   361.61850
         137           5           4   226.00980   422.82561
         137           5           5   234.61647   438.92723
         138           1           1   139.39702   260.78794
         138           1           2   127.31350   238.18176
         138           1           3   193.29322   361.61850
         138           1           4   226.00980   422.82561
         138           1           5   234.61647   438.92723
         138           2           1   139.27749   260.56433
         138           2           2   127.91810   239.31286
         138           2           3   195.24209   365.26451
         138           2           4   226.16390   423.11392
         138           2           5   237.75037   444.79021
         138           3           1   137.17062   256.62273
         138           3           2   130.09325   243.38218
         138           3           3   199.40596   373.05438
         138           3           4   232.93794   435.78698
         138           3           5   238.87575   446.89561
         138           4           1   131.73501   246.45363
         138           4           2   130.44145   244.03361
         138           4           3   203.45629   380.63186
         138           4           4   242.75327   454.14978
         138           4           5   247.27567   462.61042
         138           5           1   128.57374   240.53944
         138           5           2   130.78267   244.67198
         138           5           3   207.46130   388.12456
         138           5           4   245.52707   459.33908
         138           5           5   250.71187   469.03896
         139           1           1   128.57374   240.53944
         139           1           2   130.78267   244.67198
         139           1           3   207.46130   388.12456
         139           1           4   245.52707   459.33908
         139           1           5   250.71187   469.03896
         139           2           1   125.84085   235.42667
         139           2           2   131.12390   245.31035
         139           2           3   209.28558   391.53747
         139           2           4   251.33712   470.20871
         139           2           5   253.51600   474.28501
         139           3           1   120.29603   225.05327
         139           3           2   132.47560   247.83915
         139           3           3   212.25099   397.08525
         139           3           4   256.81857   480.46355
         139           3           5   255.91641   478.77576
         139           4           1   116.30728   217.59100
         139           4           2   133.09525   248.99842
         139           4           3   214.10672   400.55700
         139           4           4   257.94148   482.56432
         139           4           5   257.02471   480.84919
         139           5           1   111.65445   208.88635
         139           5           2   133.61554   249.97178
         139           5           3   214.18356   400.70076
         139           5           4   258.35306   483.33431
         139           5           5   257.70155   482.11546
         140           1           1   111.65445   208.88635
         140           1           2   133.61554   249.97178
         140           1           3   214.18356   400.70076
         140           1           4   258.35306   483.33431
         140           1           5   257.70155   482.11546
         140           2           1   108.05560   202.15351
         140           2           2   134.26210   251.18139
         140           2           3   213.86102   400.09734
         140           2           4   258.59513   483.78718
         140           2           5   258.69815   483.97992
         140           3           1   103.88438   194.34987
         140           3           2   137.56125   257.35354
         140           3           3   215.55629   403.26890
         140           3           4   260.56250   487.46781
         140           3           5   264.83615   495.46306
         140           4           1   103.16801   193.00968
         140           4           2   143.33190   268.14942
         140           4           3   217.24037   406.41951
         140           4           4   266.76608   499.07363
         140           4           5   271.21425   507.39541
         140           5           1   107.43477   200.99205
         140           5           2   147.87060   276.64057
         140           5           3   222.45818   416.18114
         140           5           4   268.27161   501.89022
         140           5           5   275.36678   515.16408
         141           1           1   107.43477   200.99205
         141           1           2   147.87060   276.64057
         141           1           3   222.45818   416.18114
         141           1           4   268.27161   501.89022
         141           1           5   275.36678   515.16408
         141           2           1   111.31367   208.24880
         141           2           2   152.51156   285.32300
         141           2           3   226.18078   423.14550
         141           2           4   270.61638   506.27690
         141           2           5   279.25624   522.44058
         141           3           1   119.16907   222.94492
         141           3           2   158.26753   296.09144
         141           3           3   229.90076   430.10495
         141           3           4   275.80188   515.97807
         141           3           5   285.28738   533.72382
         141           4           1   127.80392   239.09924
         141           4           2   162.51691   304.04131
         141           4           3   234.44323   438.60313
         141           4           4   286.13872   535.31652
         141           4           5   292.39600   547.02284
         141           5           1   132.36994   247.64148
         141           5           2   165.20039   309.06163
         141           5           3   237.73798   444.76703
         141           5           4   289.64803   541.88184
         141           5           5   296.73109   555.13304
         142           1           1   132.36994   247.64148
         142           1           2   165.20039   309.06163
         142           1           3   237.73798   444.76703
         142           1           4   289.64803   541.88184
         142           1           5   296.73109   555.13304
         142           2           1   136.05838   254.54192
         142           2           2   167.94556   314.19738
         142           2           3   242.78866   454.21599
         142           2           4   292.88592   547.93939
         142           2           5   300.75527   562.66158
         142           3           1   142.84674   267.24178
         142           3           2   177.17233   331.45907
         142           3           3   251.39770   470.32204
         142           3           4   296.21022   554.15857
         142           3           5   306.35572   573.13907
         142           4           1   153.53388   287.23559
         142           4           2   186.45088   348.81765
         142           4           3   257.70793   482.12739
         142           4           4   298.64890   558.72093
         142           4           5   309.75023   579.48961
         142           5           1   160.16136   299.63446
         142           5           2   190.20634   355.84347
         142           5           3   259.74090   485.93072
         142           5           4   299.59800   560.49653
         142           5           5   313.19078   585.92629
         143           1           1   160.16136   299.63446
         143           1           2   190.20634   355.84347
         143           1           3   259.74090   485.93072
         143           1           4   299.59800   560.49653
         143           1           5   313.19078   585.92629
         143           2           1   165.53460   309.68687
         143           2           2   195.86540   366.43061
         143           2           3   261.23851   488.73250
         143           2           4   299.40756   560.14025
         143           2           5   314.74233   588.82898
         143           3           1   173.24613   324.11384
         143           3           2   205.92413   385.24877
         143           3           3   263.15792   492.32339
         143           3           4   298.62161   558.66988
         143           3           5   316.39975   591.92973
         143           4           1   180.12022   336.97409
         143           4           2   215.41027   402.99571
         143           4           3   265.15385   496.05743
         143           4           4   298.02378   557.55145
         143           4           5   319.31169   597.37748
         143           5           1   184.30555   344.80410
         143           5           2   218.43167   408.64824
         143           5           3   263.09404   492.20388
         143           5           4   298.79168   558.98804
         143           5           5   320.66506   599.90939
         144           1           1   184.30555   344.80410
         144           1           2   218.43167   408.64824
         144           1           3   263.09404   492.20388
         144           1           4   298.79168   558.98804
         144           1           5   320.66506   599.90939
         144           2           1   189.75840   355.00546
         144           2           2   220.82855   413.13239
         144           2           3   261.07729   488.43088
         144           2           4   298.93587   559.25781
         144           2           5   321.97523   602.36049
         144           3           1   199.36166   372.97151
         144           3           2   226.92713   424.54179
         144           3           3   259.53381   485.54330
         144           3           4   299.77913   560.83540
         144           3           5   326.75759   611.30748
         144           4           1   204.53311   382.64642
         144           4           2   231.38952   432.89015
         144           4           3   258.75045   484.07776
         144           4           4   300.36095   561.92389
         144           4           5   326.60707   611.02588
         144           5           1   205.91219   385.22644
         144           5           2   234.46138   438.63707
         144           5           3   259.23773   484.98938
         144           5           4   300.20281   561.62803
         144           5           5   327.22609   612.18396
         145           1           1   205.91219   385.22644
         145           1           2   234.46138   438.63707
         145           1           3   259.23773   484.98938
         145           1           4   300.20281   561.62803
         145           1           5   327.22609   612.18396
         145           2           1   207.00539   387.27162
         145           2           2   237.83799   444.95414
         145           2           3   259.64006   485.74207
         145           2           4   299.88300   561.02973
         145           2           5   328.46296   614.49793
         145           3           1   211.97129   396.56198
         145           3           2   241.82675   452.41643
         145           3           3   261.83160   489.84206
         145           3           4   298.32332   558.11183
         145           3           5   331.98705   621.09091
         145           4           1   217.17320   406.29386
         145           4           2   245.01774   458.38622
         145           4           3   265.88460   497.42453
         145           4           4   302.06735   565.11627
         145           4           5   339.55279   635.24511
         145           5           1   220.42698   412.38111
         145           5           2   244.92685   458.21619
         145           5           3   267.40676   500.27224
         145           5           4   303.56445   567.91709
         145           5           5   341.96658   639.76089
         146           1           1   220.42698   412.38111
         146           1           2   244.92685   458.21619
         146           1           3   267.40676   500.27224
         146           1           4   303.56445   567.91709
         146           1           5   341.96658   639.76089
         146           2           1   223.54177   418.20836
         146           2           2   244.30999   457.06214
         146           2           3   269.21280   503.65103
         146           2           4   304.69999   570.04148
         146           2           5   344.27945   644.08787
         146           3           1   226.77833   424.26340
         146           3           2   244.34619   457.12985
         146           3           3   273.49675   511.66557
         146           3           4   305.98431   572.44422
         146           3           5   350.78431   656.25735
         146           4           1   230.31967   430.88865
         146           4           2   246.35431   460.88670
         146           4           3   277.55660   519.26085
         146           4           4   311.80123   583.32670
         146           4           5   354.68973   663.56372
         146           5           1   230.84605   431.87342
         146           5           2   248.71099   465.29565
         146           5           3   278.45555   520.94263
         146           5           4   314.05464   587.54244
         146           5           5   355.41958   664.92915
         147           1           1   230.84605   431.87342
         147           1           2   248.71099   465.29565
         147           1           3   278.45555   520.94263
         147           1           4   314.05464   587.54244
         147           1           5   355.41958   664.92915
         147           2           1   229.93386   430.16686
         147           2           2   250.31922   468.30439
         147           2           3   278.91811   521.80801
         147           2           4   316.19772   591.55177
         147           2           5   356.31872   666.61129
         147           3           1   228.60886   427.68802
         147           3           2   252.95044   473.22694
         147           3           3   280.60829   524.97004
         147           3           4   319.21699   597.20030
         147           3           5   360.86358   675.11395
         147           4           1   227.60518   425.81031
         147           4           2   255.05056   477.15590
         147           4           3   278.60099   521.21473
         147           4           4   318.83608   596.48769
         147           4           5   359.47138   672.50938
         147           5           1   227.25998   425.16450
         147           5           2   256.76886   480.37056
         147           5           3   277.25172   518.69047
         147           5           4   319.34423   597.43834
         147           5           5   359.05793   671.73589
         148           1           1   227.25998   425.16450
         148           1           2   256.76886   480.37056
         148           1           3   277.25172   518.69047
         148           1           4   319.34423   597.43834
         148           1           5   359.05793   671.73589
         148           2           1   226.94453   424.57434
         148           2           2   258.04244   482.75321
         148           2           3   277.06086   518.33340
         148           2           4   318.74427   596.31592
         148           2           5   360.34432   674.14249
         148           3           1   225.39225   421.67029
         148           3           2   260.53183   487.41043
         148           3           3   275.33255   515.10003
         148           3           4   317.20677   593.43953
         148           3           5   362.33650   677.86952
         148           4           1   223.79082   418.67428
         148           4           2   262.85259   491.75217
         148           4           3   277.12131   518.44650
         148           4           4   316.53712   592.18673
         148           4           5   363.77669   680.56386
         148           5           1   223.31832   417.79031
         148           5           2   262.67564   491.42112
         148           5           3   278.24321   520.54539
         148           5           4   316.05484   591.28447
         148           5           5   361.50857   676.32061
         149           1           1   223.31832   417.79031
         149           1           2   262.67564   491.42112
         149           1           3   278.24321   520.54539
         149           1           4   316.05484   591.28447
         149           1           5   361.50857   676.32061
         149           2           1   222.17270   415.64705
         149           2           2   260.26409   486.90953
         149           2           3   278.79416   521.57611
         149           2           4   316.71879   592.52660
         149           2           5   357.10197   668.07662
         149           3           1   223.55913   418.24084
         149           3           2   256.02363   478.97636
         149           3           3   281.73174   527.07182
         149           3           4   318.56433   595.97929
         149           3           5   354.67818   663.54212
         149           4           1   225.52980   421.92763
         149           4           2   252.82887   472.99950
         149           4           3   284.70729   532.63856
         149           4           4   319.74655   598.19102
         149           4           5   347.59510   650.29089
         149           5           1   225.96712   422.74577
         149           5           2   250.10807   467.90936
         149           5           3   286.63518   536.24532
         149           5           4   320.88187   600.31501
         149           5           5   343.60843   642.83251
         150           1           1   225.96712   422.74577
         150           1           2   250.10807   467.90936
         150           1           3   286.63518   536.24532
         150           1           4   320.88187   600.31501
         150           1           5   343.60843   642.83251
         150           2           1   228.41919   427.33317
         150           2           2   249.30360   466.40434
         150           2           3   291.74947   545.81328
         150           2           4   321.68052   601.80915
         150           2           5   342.23279   640.25893
         150           3           1   232.86404   435.64873
         150           3           2   248.90866   465.66546
         150           3           3   299.00655   559.39002
         150           3           4   322.25072   602.87590
         150           3           5   336.02950   628.65364
         150           4           1   239.13096   447.37306
         150           4           2   253.24318   473.77460
         150           4           3   305.72649   571.96189
         150           4           4   318.47719   595.81627
         150           4           5   331.80391   620.74828
         150           5           1   242.82212   454.27859
         150           5           2   255.62665   478.23368
         150           5           3   306.89005   574.13871
         150           5           4   316.69308   592.47851
         150           5           5   328.65627   614.85957
         151           1           1   242.82212   454.27859
         151           1           2   255.62665   478.23368
         151           1           3   306.89005   574.13871
         151           1           4   316.69308   592.47851
         151           1           5   328.65627   614.85957
         151           2           1   246.87127   461.85386
         151           2           2   257.62212   481.96686
         151           2           3   307.01735   574.37687
         151           2           4   315.72310   590.66384
         151           2           5   327.33453   612.38684
         151           3           1   253.35098   473.97628
         151           3           2   262.20799   490.54623
         151           3           3   305.53941   571.61190
         151           3           4   314.13325   587.68949
         151           3           5   322.91459   604.11787
         151           4           1   260.63705   487.60727
         151           4           2   267.41071   500.27963
         151           4           3   305.25399   571.07792
         151           4           4   309.18586   578.43379
         151           4           5   320.83520   600.22770
         151           5           1   263.79987   493.52436
         151           5           2   271.05051   507.08908
         151           5           3   305.14519   570.87438
         151           5           4   308.05658   576.32109
         151           5           5   318.45169   595.76856
         152           1           1   263.79987   493.52436
         152           1           2   271.05051   507.08908
         152           1           3   305.14519   570.87438
         152           1           4   308.05658   576.32109
         152           1           5   318.45169   595.76856
         152           2           1   268.38650   502.10517
         152           2           2   275.29427   515.02842
         152           2           3   305.00175   570.60602
         152           2           4   307.66556   575.58955
         152           2           5   315.87367   590.94552
         152           3           1   273.16471   511.04437
         152           3           2   283.64325   530.64793
         152           3           3   303.40613   567.62089
         152           3           4   304.77027   570.17297
         152           3           5   314.14540   587.71222
         152           4           1   274.96111   514.40513
         152           4           2   291.26007   544.89769
         152           4           3   301.66561   564.36469
         152           4           4   303.69300   568.15758
         152           4           5   311.47860   582.72311
         152           5           1   278.53396   521.08932
         152           5           2   293.00300   548.15842
         152           5           3   300.16854   561.56393
         152           5           4   301.95901   564.91358
         152           5           5   312.10912   583.90269
         153           1           1   278.53396   521.08932
         153           1           2   293.00300   548.15842
         153           1           3   300.16854   561.56393
         153           1           4   301.95901   564.91358
         153           1           5   312.10912   583.90269
         153           2           1   280.68573   525.11492
         153           2           2   292.89982   547.96538
         153           2           3   298.49176   558.42696
         153           2           4   297.35501   556.30028
         153           2           5   311.80172   583.32761
         153           3           1   284.06599   531.43881
         153           3           2   294.59397   551.13486
         153           3           3   293.43437   548.96544
         153           3           4   285.75961   534.60727
         153           3           5   305.83269   572.16057
         153           4           1   288.54851   539.82482
         153           4           2   298.67141   558.76305
         153           4           3   287.76522   538.35944
         153           4           4   281.27235   526.21238
         153           4           5   302.70237   566.30428
         153           5           1   290.52613   543.52463
         153           5           2   300.72802   562.61060
         153           5           3   285.70810   534.51091
         153           5           4   279.00278   521.96641
         153           5           5   300.34247   561.88931
         154           1           1   290.52613   543.52463
         154           1           2   300.72802   562.61060
         154           1           3   285.70810   534.51091
         154           1           4   279.00278   521.96641
         154           1           5   300.34247   561.88931
         154           2           1   291.20136   544.78785
         154           2           2   303.69517   568.16164
         154           2           3   287.19385   537.29050
         154           2           4   279.21036   522.35475
         154           2           5   300.23361   561.68565
         154           3           1   293.47209   549.03600
         154           3           2   307.41253   575.11617
         154           3           3   286.93197   536.80056
         154           3           4   278.05104   520.18587
         154           3           5   296.78883   555.24106
         154           4           1   291.23530   544.85135
         154           4           2   306.45552   573.32578
         154           4           3   288.20233   539.17720
         154           4           4   281.90935   527.40410
         154           4           5   293.73708   549.53175
         154           5           1   289.32843   541.28393
         154           5           2   305.99238   572.45932
         154           5           3   287.61017   538.06936
         154           5           4   285.47143   534.06814
         154           5           5   294.05579   550.12801
         155           1           1   289.32843   541.28393
         155           1           2   305.99238   572.45932
         155           1           3   287.61017   538.06936
         155           1           4   285.47143   534.06814
         155           1           5   294.05579   550.12801
         155           2           1   287.04806   537.01774
         155           2           2   306.58614   573.57015
         155           2           3   287.64964   538.14320
         155           2           4   289.67608   541.93432
         155           2           5   292.94724   548.05410
         155           3           1   288.90506   540.49188
         155           3           2   306.43779   573.29261
         155           3           3   287.49215   537.84855
         155           3           4   294.58187   551.11222
         155           3           5   290.00185   542.54379
         155           4           1   290.07949   542.68904
         155           4           2   304.23013   569.16247
         155           4           3   286.48808   535.97012
         155           4           4   297.04326   555.71706
         155           4           5   289.19250   541.02962
         155           5           1   289.11655   540.88754
         155           5           2   302.70316   566.30577
         155           5           3   284.93634   533.06708
         155           5           4   297.80852   557.14872
         155           5           5   287.18273   537.26969
         156           1           1   289.11655   540.88754
         156           1           2   302.70316   566.30577
         156           1           3   284.93634   533.06708
         156           1           4   297.80852   557.14872
         156           1           5   287.18273   537.26969
         156           2           1   289.05053   540.76402
         156           2           2   301.60022   564.24235
         156           2           3   283.42628   530.24202
         156           2           4   298.61169   558.65133
         156           2           5   289.48962   541.58549
         156           3           1   288.31914   539.39572
         156           3           2   296.36795   554.45367
         156           3           3   282.75762   528.99108
         156           3           4   298.40424   558.26321
         156           3           5   293.13635   548.40789
         156           4           1   286.20535   535.44117
         156           4           2   295.36792   552.58278
         156           4           3   285.53736   534.19148
         156           4           4   296.14945   554.04489
         156           4           5   298.97040   559.32240
         156           5           1   285.28632   533.72183
         156           5           2   295.95849   553.68764
         156           5           3   287.65409   538.15153
         156           5           4   295.63785   553.08777
         156           5           5   300.30054   561.81086
         157           1           1   220.47209   412.46552
         157           1           2   219.86190   411.32394
         157           1           3   224.29848   419.62403
         157           1           4   184.72603   345.59075
         157           1           5   175.35720   328.06328
         157           2           1   220.64236   412.78406
         157           2           2   222.71938   416.66981
         157           2           3   227.02253   424.72027
         157           2           4   185.00668   346.11581
         157           2           5   176.34743   329.91584
         157           3           1   220.21579   411.98602
         157           3           2   231.06334   432.27993
         157           3           3   230.17650   430.62079
         157           3           4   185.03036   346.16010
         157           3           5   175.65641   328.62305
         157           4           1   223.03426   417.25889
         157           4           2   240.50445   449.94263
         157           4           3   231.90658   433.85749
         157           4           4   184.38817   344.95868
         157           4           5   174.67386   326.78486
         157           5           1   222.96512   417.12954
         157           5           2   245.10074   458.54150
         157           5           3   232.25718   434.51340
         157           5           4   181.86655   340.24117
         157           5           5   173.37517   324.35524
         158           1           1   222.96512   417.12954
         158           1           2   245.10074   458.54150
         158           1           3   232.25718   434.51340
         158           1           4   181.86655   340.24117
         158           1           5   173.37517   324.35524
         158           2           1   224.61046   420.20769
         158           2           2   249.69703   467.14038
         158           2           3   231.73339   433.53347
         158           2           4   180.73187   338.11836
         158           2           5   172.44692   322.61864
         158           3           1   227.26657   425.17682
         158           3           2   251.98264   471.41636
         158           3           3   230.69533   431.59144
         158           3           4   179.15563   335.16949
         158           3           5   173.05487   323.75602
         158           4           1   228.35262   427.20864
         158           4           2   252.09930   471.63460
         158           4           3   230.80812   431.80245
         158           4           4   178.87224   334.63932
         158           4           5   175.06035   327.50793
         158           5           1   228.23247   426.98385
         158           5           2   250.58750   468.80628
         158           5           3   232.28416   434.56388
         158           5           4   181.09028   338.78888
         158           5           5   176.94179   331.02778
         159           1           1   228.23247   426.98385
         159           1           2   250.58750   468.80628
         159           1           3   232.28416   434.56388
         159           1           4   181.09028   338.78888
         159           1           5   176.94179   331.02778
         159           2           1   228.25824   427.03206
         159           2           2   249.07570   465.97796
         159           2           3   233.50812   436.85369
         159           2           4   182.91101   342.19517
         159           2           5   178.78465   334.47545
         159           3           1   228.32096   427.14940
         159           3           2   248.64553   465.17320
         159           3           3   236.61587   442.66776
         159           3           4   186.12180   348.20201
         159           3           5   184.94285   345.99639
         159           4           1   228.43682   427.36615
         159           4           2   247.07094   462.22740
         159           4           3   240.67614   450.26383
         159           4           4   190.91874   357.17625
         159           4           5   191.78940   358.80512
         159           5           1   228.67606   427.81373
         159           5           2   249.57438   466.91091
         159           5           3   243.22864   455.03912
         159           5           4   195.06467   364.93258
         159           5           5   194.77424   364.38923
         160           1           1   228.67606   427.81373
         160           1           2   249.57438   466.91091
         160           1           3   243.22864   455.03912
         160           1           4   195.06467   364.93258
         160           1           5   194.77424   364.38923
         160           2           1   230.26380   430.78413
         160           2           2   252.07782   471.59443
         160           2           3   246.66060   461.45973
         160           2           4   196.59504   367.79565
         160           2           5   197.86321   370.16817
         160           3           1   230.87488   431.92735
         160           3           2   257.21791   481.21064
         160           3           3   254.82998   476.74325
         160           3           4   203.43353   380.58929
         160           3           5   205.98679   385.36600
         160           4           1   230.89831   431.97117
         160           4           2   262.56361   491.21154
         160           4           3   263.35841   492.69848
         160           4           4   213.57300   399.55849
         160           4           5   215.66699   403.47600
         160           5           1   228.68444   427.82941
         160           5           2   263.05736   492.13526
         160           5           3   265.39404   496.50679
         160           5           4   221.19318   413.81455
         160           5           5   222.17912   415.65907
         161           1           1   228.68444   427.82941
         161           1           2   263.05736   492.13526
         161           1           3   265.39404   496.50679
         161           1           4   221.19318   413.81455
         161           1           5   222.17912   415.65907
         161           2           1   227.28189   425.20548
         161           2           2   263.15902   492.32545
         161           2           3   268.17887   501.71672
         161           2           4   226.86395   424.42358
         161           2           5   228.64871   427.76257
         161           3           1   229.12156   428.64718
         161           3           2   264.08097   494.05025
         161           3           3   277.46581   519.09100
         161           3           4   237.68496   444.66784
         161           3           5   241.39774   451.61381
         161           4           1   230.19496   430.65534
         161           4           2   265.77551   497.22045
         161           4           3   288.19545   539.16431
         161           4           4   254.01112   475.21130
         161           4           5   255.90046   478.74592
         161           5           1   234.61647   438.92723
         161           5           2   266.60015   498.76321
         161           5           3   293.37341   548.85139
         161           5           4   262.13255   490.40510
         161           5           5   262.05274   490.25578
         162           1           1   234.61647   438.92723
         162           1           2   266.60015   498.76321
         162           1           3   293.37341   548.85139
         162           1           4   262.13255   490.40510
         162           1           5   262.05274   490.25578
         162           2           1   237.75037   444.79021
         162           2           2   267.65973   500.74550
         162           2           3   298.26705   558.00656
         162           2           4   270.87339   506.75771
         162           2           5   268.18732   501.73253
         162           3           1   238.87575   446.89561
         162           3           2   266.80202   499.14087
         162           3           3   304.40743   569.49415
         162           3           4   288.91565   540.51170
         162           3           5   280.88651   525.49055
         162           4           1   247.27567   462.61042
         162           4           2   262.51917   491.12840
         162           4           3   310.37516   580.65876
         162           4           4   306.68573   573.75646
         162           4           5   295.81414   553.41759
         162           5           1   250.71187   469.03896
         162           5           2   260.40517   487.17347
         162           5           3   309.20075   578.46163
         162           5           4   311.70341   583.14369
         162           5           5   303.84759   568.44679
         163           1           1   250.71187   469.03896
         163           1           2   260.40517   487.17347
         163           1           3   309.20075   578.46163
         163           1           4   311.70341   583.14369
         163           1           5   303.84759   568.44679
         163           2           1   253.51600   474.28501
         163           2           2   258.29117   483.21854
         163           2           3   307.06385   574.46386
         163           2           4   319.73999   598.17875
         163           2           5   312.67489   584.96115
         163           3           1   255.91641   478.77576
         163           3           2   257.28637   481.33872
         163           3           3   303.88568   568.51805
         163           3           4   331.41873   620.02767
         163           3           5   328.68463   614.91264
         163           4           1   257.02471   480.84919
         163           4           2   259.58680   485.64243
         163           4           3   299.02213   559.41918
         163           4           4   343.15007   641.97500
         163           4           5   342.29075   640.36736
         163           5           1   257.70155   482.11546
         163           5           2   264.03158   493.95786
         163           5           3   298.58491   558.60122
         163           5           4   344.92227   645.29049
         163           5           5   345.71534   646.77417
         164           1           1   257.70155   482.11546
         164           1           2   264.03158   493.95786
         164           1           3   298.58491   558.60122
         164           1           4   344.92227   645.29049
         164           1           5   345.71534   646.77417
         164           2           1   258.69815   483.97992
         164           2           2   268.49435   502.30694
         164           2           3   300.07944   561.39723
         164           2           4   347.32829   649.79173
         164           2           5   351.06445   656.78144
         164           3           1   264.83615   495.46306
         164           3           2   274.91244   514.31408
         164           3           3   301.22174   563.53428
         164           3           4   350.35666   655.45729
         164           3           5   359.18402   671.97176
         164           4           1   271.21425   507.39541
         164           4           2   279.55886   523.00674
         164           4           3   303.42935   567.66433
         164           4           4   353.53680   661.40680
         164           4           5   363.93145   680.85340
         164           5           1   275.36678   515.16408
         164           5           2   284.72316   532.66825
         164           5           3   302.14099   565.25403
         164           5           4   352.29169   659.07740
         164           5           5   364.72835   682.34427
         165           1           1   275.36678   515.16408
         165           1           2   284.72316   532.66825
         165           1           3   302.14099   565.25403
         165           1           4   352.29169   659.07740
         165           1           5   364.72835   682.34427
         165           2           1   279.25624   522.44058
         165           2           2   290.64886   543.75422
         165           2           3   300.37317   561.94675
         165           2           4   351.55703   657.70297
         165           2           5   365.22516   683.27370
         165           3           1   285.28738   533.72382
         165           3           2   300.66635   562.49524
         165           3           3   299.60810   560.51544
         165           3           4   351.70513   657.98006
         165           3           5   363.73988   680.49501
         165           4           1   292.39600   547.02284
         165           4           2   308.50918   577.16783
         165           4           3   302.25670   565.47050
         165           4           4   352.72231   659.88303
         165           4           5   362.43074   678.04582
         165           5           1   296.73109   555.13304
         165           5           2   311.74372   583.21909
         165           5           3   306.33668   573.10344
         165           5           4   353.25233   660.87460
         165           5           5   364.73067   682.34860
         166           1           1   296.73109   555.13304
         166           1           2   311.74372   583.21909
         166           1           3   306.33668   573.10344
         166           1           4   353.25233   660.87460
         166           1           5   364.73067   682.34860
         166           2           1   300.75527   562.66158
         166           2           2   315.90767   591.00914
         166           2           3   310.74806   581.35638
         166           2           4   353.82894   661.95333
         166           2           5   364.38206   681.69641
         166           3           1   306.35572   573.13907
         166           3           2   324.37720   606.85418
         166           3           3   319.91666   598.50927
         166           3           4   353.67511   661.66555
         166           3           5   362.47684   678.13208
         166           4           1   309.75023   579.48961
         166           4           2   329.91525   617.21491
         166           4           3   330.72392   618.72779
         166           4           4   355.15363   664.43160
         166           4           5   360.42942   674.30171
         166           5           1   313.19078   585.92629
         166           5           2   332.54158   622.12833
         166           5           3   336.28021   629.12267
         166           5           4   355.85708   665.74763
         166           5           5   361.73114   676.73700
         167           1           1   313.19078   585.92629
         167           1           2   332.54158   622.12833
         167           1           3   336.28021   629.12267
         167           1           4   355.85708   665.74763
         167           1           5   361.73114   676.73700
         167           2           1   314.74233   588.82898
         167           2           2   335.10268   626.91971
         167           2           3   341.78910   639.42885
         167           2           4   354.07609   662.41570
         167           2           5   359.95563   673.41532
         167           3           1   316.39975   591.92973
         167           3           2   341.46293   638.81864
         167           3           3   351.29172   657.20662
         167           3           4   348.43444   651.86115
         167           3           5   357.98123   669.72155
         167           4           1   319.31169   597.37748
         167           4           2   347.63899   650.37301
         167           4           3   361.23868   675.81568
         167           4           4   347.12057   649.40313
         167           4           5   359.97767   673.45654
         167           5           1   320.66506   599.90939
         167           5           2   349.41976   653.70452
         167           5           3   363.52669   680.09616
         167           5           4   347.51137   650.13424
         167           5           5   363.51600   680.07616
         168           1           1   320.66506   599.90939
         168           1           2   349.41976   653.70452
         168           1           3   363.52669   680.09616
         168           1           4   347.51137   650.13424
         168           1           5   363.51600   680.07616
         168           2           1   321.97523   602.36049
         168           2           2   351.67968   657.93243
         168           2           3   368.00155   688.46786
         168           2           4   347.92732   650.91242
         168           2           5   367.35418   687.25674
         168           3           1   326.75759   611.30748
         168           3           2   356.76530   667.44676
         168           3           3   374.46994   700.56911
         168           3           4   342.94462   641.59063
         168           3           5   370.88826   693.86840
         168           4           1   326.60707   611.02588
         168           4           2   365.20710   683.23993
         168           4           3   374.05638   699.79540
         168           4           4   343.57630   642.77240
         168           4           5   370.07950   692.35534
         168           5           1   327.22609   612.18396
         168           5           2   368.31462   689.05356
         168           5           3   372.32084   696.54852
         168           5           4   343.49495   642.62020
         168           5           5   370.47709   693.09918
         169           1           1   327.22609   612.18396
         169           1           2   368.31462   689.05356
         169           1           3   372.32084   696.54852
         169           1           4   343.49495   642.62020
         169           1           5   370.47709   693.09918
         169           2           1   328.46296   614.49793
         169           2           2   370.85079   693.79830
         169           2           3   369.95196   692.11675
         169           2           4   342.98059   641.65793
         169           2           5   371.23028   694.50826
         169           3           1   331.98705   621.09091
         169           3           2   373.97399   699.64126
         169           3           3   368.65775   689.69549
         169           3           4   345.51141   646.39266
         169           3           5   370.04145   692.28416
         169           4           1   339.55279   635.24511
         169           4           2   375.53383   702.55946
         169           4           3   364.63385   682.16747
         169           4           4   346.55879   648.35212
         169           4           5   368.56750   689.52665
         169           5           1   341.96658   639.76089
         169           5           2   375.67872   702.83052
         169           5           3   362.08846   677.40549
         169           5           4   346.51244   648.26542
         169           5           5   367.52181   687.57034
         170           1           1   341.96658   639.76089
         170           1           2   375.67872   702.83052
         170           1           3   362.08846   677.40549
         170           1           4   346.51244   648.26542
         170           1           5   367.52181   687.57034
         170           2           1   344.27945   644.08787
         170           2           2   374.98708   701.53658
         170           2           3   359.55577   672.66726
         170           2           4   346.94241   649.06981
         170           2           5   366.67911   685.99380
         170           3           1   350.78431   656.25735
         170           3           2   374.66135   700.92721
         170           3           3   355.54951   665.17222
         170           3           4   350.32210   655.39264
         170           3           5   365.83382   684.41241
         170           4           1   354.68973   663.56372
         170           4           2   376.39133   704.16371
         170           4           3   352.80174   660.03162
         170           4           4   355.17692   664.47518
         170           4           5   371.61716   695.23204
         170           5           1   355.41958   664.92915
         170           5           2   376.76416   704.86121
         170           5           3   353.64067   661.60111
         170           5           4   358.39055   670.48733
         170           5           5   373.71206   699.15125
         171           1           1   355.41958   664.92915
         171           1           2   376.76416   704.86121
         171           1           3   353.64067   661.60111
         171           1           4   358.39055   670.48733
         171           1           5   373.71206   699.15125
         171           2           1   356.31872   666.61129
         171           2           2   377.92945   707.04125
         171           2           3   353.31063   660.98366
         171           2           4   361.92538   677.10038
         171           2           5   374.84364   701.26823
         171           3           1   360.86358   675.11395
         171           3           2   378.53652   708.17699
         171           3           3   351.90433   658.35271
         171           3           4   367.18395   686.93827
         171           3           5   377.34402   705.94602
         171           4           1   359.47138   672.50938
         171           4           2   381.05755   712.89340
         171           4           3   351.58584   657.75687
         171           4           4   371.32943   694.69376
         171           4           5   376.65667   704.66010
         171           5           1   359.05793   671.73589
         171           5           2   380.21385   711.31497
         171           5           3   349.71392   654.25484
         171           5           4   372.88411   697.60229
         171           5           5   377.26520   705.79857
         172           1           1   359.05793   671.73589
         172           1           2   380.21385   711.31497
         172           1           3   349.71392   654.25484
         172           1           4   372.88411   697.60229
         172           1           5   377.26520   705.79857
         172           2           1   360.34432   674.14249
         172           2           2   379.17851   709.37803
         172           2           3   346.35674   647.97413
         172           2           4   373.03114   697.87735
         172           2           5   375.16992   701.87865
         172           3           1   362.33650   677.86952
         172           3           2   376.57754   704.51206
         172           3           3   343.56002   642.74195
         172           3           4   369.87805   691.97848
         172           3           5   369.99125   692.19024
         172           4           1   363.77669   680.56386
         172           4           2   370.24695   692.66862
         172           4           3   338.14569   632.61266
         172           4           4   368.84109   690.03849
         172           4           5   367.76530   688.02587
         172           5           1   361.50857   676.32061
         172           5           2   366.53678   685.72753
         172           5           3   335.29467   627.27889
         172           5           4   368.18422   688.80961
         172           5           5   366.14915   685.00234
         173           1           1   361.50857   676.32061
         173           1           2   366.53678   685.72753
         173           1           3   335.29467   627.27889
         173           1           4   368.18422   688.80961
         173           1           5   366.14915   685.00234
         173           2           1   357.10197   668.07662
         173           2           2   362.40527   677.99818
         173           2           3   333.27802   623.50609
         173           2           4   366.92586   686.45543
         173           2           5   364.99533   682.84373
         173           3           1   354.67818   663.54212
         173           3           2   355.49358   665.06759
         173           3           3   328.09925   613.81750
         173           3           4   365.42525   683.64805
         173           3           5   363.85482   680.71004
         173           4           1   347.59510   650.29089
         173           4           2   348.69396   652.34667
         173           4           3   322.31892   603.00349
         173           4           4   361.15692   675.66274
         173           4           5   360.26943   674.00239
         173           5           1   343.60843   642.83251
         173           5           2   344.45141   644.40959
         173           5           3   320.14458   598.93567
         173           5           4   359.02438   671.67310
         173           5           5   357.79979   669.38212
         174           1           1   343.60843   642.83251
         174           1           2   344.45141   644.40959
         174           1           3   320.14458   598.93567
         174           1           4   359.02438   671.67310
         174           1           5   357.79979   669.38212
         174           2           1   342.23279   640.25893
         174           2           2   339.26346   634.70382
         174           2           3   319.31014   597.37457
         174           2           4   355.57244   665.21513
         174           2           5   356.98921   667.86565
         174           3           1   336.02950   628.65364
         174           3           2   329.52179   616.47883
         174           3           3   318.95776   596.71533
         174           3           4   348.88490   652.70388
         174           3           5   357.58694   668.98391
         174           4           1   331.80391   620.74828
         174           4           2   320.26090   599.15328
         174           4           3   319.98059   598.62886
         174           4           4   343.12307   641.92449
         174           4           5   352.84364   660.11001
         174           5           1   328.65627   614.85957
         174           5           2   316.35682   591.84941
         174           5           3   320.36571   599.34936
         174           5           4   340.10027   636.26934
         174           5           5   350.05143   654.88626
         175           1           1   328.65627   614.85957
         175           1           2   316.35682   591.84941
         175           1           3   320.36571   599.34936
         175           1           4   340.10027   636.26934
         175           1           5   350.05143   654.88626
         175           2           1   327.33453   612.38684
         175           2           2   313.13407   585.82020
         175           2           3   320.11135   598.87350
         175           2           4   336.45710   629.45359
         175           2           5   346.78562   648.77648
         175           3           1   322.91459   604.11787
         175           3           2   307.35292   575.00466
         175           3           3   317.81850   594.58397
         175           3           4   329.60302   616.63079
         175           3           5   339.83515   635.77335
         175           4           1   320.83520   600.22770
         175           4           2   306.77913   573.93120
         175           4           3   317.62551   594.22293
         175           4           4   321.77957   601.99445
         175           4           5   335.87448   628.36361
         175           5           1   318.45169   595.76856
         175           5           2   306.78536   573.94285
         175           5           3   317.54189   594.06647
         175           5           4   317.18103   593.39138
         175           5           5   332.94681   622.88645
         176           1           1   318.45169   595.76856
         176           1           2   306.78536   573.94285
         176           1           3   317.54189   594.06647
         176           1           4   317.18103   593.39138
         176           1           5   332.94681   622.88645
         176           2           1   315.87367   590.94552
         176           2           2   307.53883   575.35247
         176           2           3   315.74830   590.71098
         176           2           4   311.77832   583.28383
         176           2           5   328.06426   613.75203
         176           3           1   314.14540   587.71222
         176           3           2   308.52644   577.20011
         176           3           3   309.78661   579.55767
         176           3           4   303.77589   568.31265
         176           3           5   319.59760   597.91236
         176           4           1   311.47860   582.72311
         176           4           2   306.42585   573.27028
         176           4           3   305.28701   571.13969
         176           4           4   293.39338   548.88876
         176           4           5   314.82503   588.98370
         176           5           1   312.10912   583.90269
         176           5           2   306.05773   572.58158
         176           5           3   302.21274   565.38827
         176           5           4   288.23179   539.23230
         176           5           5   312.08985   583.86664
         177           1           1   312.10912   583.90269
         177           1           2   306.05773   572.58158
         177           1           3   302.21274   565.38827
         177           1           4   288.23179   539.23230
         177           1           5   312.08985   583.86664
         177           2           1   311.80172   583.32761
         177           2           2   307.59652   575.46040
         177           2           3   299.86200   560.99043
         177           2           4   286.84782   536.64313
         177           2           5   311.72530   583.18464
         177           3           1   305.83269   572.16057
         177           3           2   309.92313   579.81308
         177           3           3   294.18773   550.37485
         177           3           4   280.99301   525.68978
         177           3           5   312.99476   585.55959
         177           4           1   302.70237   566.30428
         177           4           2   308.40825   576.97900
         177           4           3   287.53728   537.93300
         177           4           4   280.41060   524.60020
         177           4           5   307.80099   575.84293
         177           5           1   300.34247   561.88931
         177           5           2   306.83177   574.02969
         177           5           3   285.90268   534.87494
         177           5           4   279.31242   522.54569
         177           5           5   302.18903   565.34391
         178           1           1   300.34247   561.88931
         178           1           2   306.83177   574.02969
         178           1           3   285.90268   534.87494
         178           1           4   279.31242   522.54569
         178           1           5   302.18903   565.34391
         178           2           1   300.23361   561.68565
         178           2           2   301.74279   564.50907
         178           2           3   283.65882   530.67706
         178           2           4   280.51664   524.79857
         178           2           5   296.48405   554.67086
         178           3           1   296.78883   555.24106
         178           3           2   293.83891   549.72226
         178           3           3   279.00549   521.97148
         178           3           4   272.39023   509.59545
         178           3           5   286.16754   535.37045
         178           4           1   293.73708   549.53175
         178           4           2   284.69619   532.61781
         178           4           3   275.58658   515.57529
         178           4           4   266.52303   498.61893
         178           4           5   279.22763   522.38706
         178           5           1   294.05579   550.12801
         178           5           2   280.17819   524.16541
         178           5           3   273.39380   511.47297
         178           5           4   265.06444   495.89017
         178           5           5   275.39782   515.22214
         179           1           1   294.05579   550.12801
         179           1           2   280.17819   524.16541
         179           1           3   273.39380   511.47297
         179           1           4   265.06444   495.89017
         179           1           5   275.39782   515.22214
         179           2           1   292.94724   548.05410
         179           2           2   280.40330   524.58654
         179           2           3   270.10743   505.32473
         179           2           4   261.45801   489.14315
         179           2           5   272.43505   509.67931
         179           3           1   290.00185   542.54379
         179           3           2   280.81958   525.36532
         179           3           3   266.55582   498.68028
         179           3           4   255.72863   478.42447
         179           3           5   264.75717   495.31532
         179           4           1   289.19250   541.02962
         179           4           2   284.68232   532.59186
         179           4           3   267.08935   499.67842
         179           4           4   250.72206   469.05803
         179           4           5   254.78212   476.65369
         179           5           1   287.18273   537.26969
         179           5           2   286.26946   535.56112
         179           5           3   265.01015   495.78860
         179           5           4   249.25236   466.30846
         179           5           5   250.02994   467.76318
         180           1           1   287.18273   537.26969
         180           1           2   286.26946   535.56112
         180           1           3   265.01015   495.78860
         180           1           4   249.25236   466.30846
         180           1           5   250.02994   467.76318
         180           2           1   289.48962   541.58549
         180           2           2   288.16811   539.11317
         180           2           3   260.89984   488.09890
         180           2           4   248.08362   464.12195
         180           2           5   247.58797   463.19468
         180           3           1   293.13635   548.40789
         180           3           2   290.52044   543.51397
         180           3           3   256.60330   480.06081
         180           3           4   244.87490   458.11898
         180           3           5   239.00384   447.13523
         180           4           1   298.97040   559.32240
         180           4           2   293.46430   549.02144
         180           4           3   254.07477   475.33038
         180           4           4   239.69077   448.42036
         180           4           5   241.87172   452.50055
         180           5           1   300.30054   561.81086
         180           5           2   294.98674   551.86965
         180           5           3   249.51846   466.80630
         180           5           4   238.49597   446.18510
         180           5           5   243.39124   455.34331
         181           1           1   175.35720   328.06328
         181           1           2   187.54162   350.85825
         181           1           3   209.47222   391.88665
         181           1           4   248.62560   465.13590
         181           1           5   266.79555   499.12876
         181           2           1   176.34743   329.91584
         181           2           2   187.92733   351.57985
         181           2           3   210.37417   393.57403
         181           2           4   251.03415   469.64190
         181           2           5   268.90403   503.07337
         181           3           1   175.65641   328.62305
         181           3           2   189.43757   354.40525
         181           3           3   213.65701   399.71566
         181           3           4   254.50326   476.13201
         181           3           5   273.47005   511.61561
         181           4           1   174.67386   326.78486
         181           4           2   190.99164   357.31264
         181           4           3   211.68977   396.03530
         181           4           4   254.07602   475.33270
         181           4           5   277.13395   518.47015
         181           5           1   173.37517   324.35524
         181           5           2   191.27691   357.84633
         181           5           3   212.93546   398.36576
         181           5           4   254.20152   475.56749
         181           5           5   276.56695   517.40938
         182           1           1   173.37517   324.35524
         182           1           2   191.27691   357.84633
         182           1           3   212.93546   398.36576
         182           1           4   254.20152   475.56749
         182           1           5   276.56695   517.40938
         182           2           1   172.44692   322.61864
         182           2           2   191.56218   358.38003
         182           2           3   214.29717   400.91329
         182           2           4   256.87010   480.55995
         182           2           5   275.69227   515.77301
         182           3           1   173.05487   323.75602
         182           3           2   194.15524   363.23119
         182           3           3   220.38911   412.31028
         182           3           4   262.30121   490.72062
         182           3           5   273.17632   511.06610
         182           4           1   175.06035   327.50793
         182           4           2   197.88893   370.21628
         182           4           3   225.60987   422.07742
         182           4           4   267.92341   501.23881
         182           4           5   271.47576   507.88464
         182           5           1   176.94179   331.02778
         182           5           2   200.78418   375.63281
         182           5           3   229.72142   429.76942
         182           5           4   270.24791   505.58754
         182           5           5   269.36002   503.92645
         183           1           1   176.94179   331.02778
         183           1           2   200.78418   375.63281
         183           1           3   229.72142   429.76942
         183           1           4   270.24791   505.58754
         183           1           5   269.36002   503.92645
         183           2           1   178.78465   334.47545
         183           2           2   203.67943   381.04933
         183           2           3   234.48936   438.68942
         183           2           4   270.82132   506.66029
         183           2           5   267.24427   499.96826
         183           3           1   184.94285   345.99639
         183           3           2   209.49368   391.92679
         183           3           3   242.56665   453.80066
         183           3           4   270.11092   505.33125
         183           3           5   267.11982   499.73542
         183           4           1   191.78940   358.80512
         183           4           2   215.62944   403.40575
         183           4           3   250.29850   468.26562
         183           4           4   269.17351   503.57753
         183           4           5   262.48562   491.06563
         183           5           1   194.77424   364.38923
         183           5           2   219.25159   410.18216
         183           5           3   253.01635   473.35024
         183           5           4   268.10874   501.58552
         183           5           5   260.77674   487.86860
         184           1           1   194.77424   364.38923
         184           1           2   219.25159   410.18216
         184           1           3   253.01635   473.35024
         184           1           4   268.10874   501.58552
         184           1           5   260.77674   487.86860
         184           2           1   197.86321   370.16817
         184           2           2   222.87373   416.95857
         184           2           3   255.72020   478.40869
         184           2           4   265.92993   497.50934
         184           2           5   259.06785   484.67157
         184           3           1   205.98679   385.36600
         184           3           2   231.20319   432.54156
         184           3           3   260.85267   488.01066
         184           3           4   260.29573   486.96871
         184           3           5   255.20977   477.45377
         184           4           1   215.66699   403.47600
         184           4           2   240.62602   450.17006
         184           4           3   269.93658   505.00509
         184           4           4   258.90433   484.36566
         184           4           5   250.16844   468.02229
         184           5           1   222.17912   415.65907
         184           5           2   248.00317   463.97145
         184           5           3   277.45062   519.06258
         184           5           4   259.48022   485.44304
         184           5           5   249.13949   466.09731
         185           1           1   222.17912   415.65907
         185           1           2   248.00317   463.97145
         185           1           3   277.45062   519.06258
         185           1           4   259.48022   485.44304
         185           1           5   249.13949   466.09731
         185           2           1   228.64871   427.76257
         185           2           2   255.38033   477.77285
         185           2           3   284.96466   533.12006
         185           2           4   258.81157   484.19212
         185           2           5   248.36979   464.65734
         185           3           1   241.39774   451.61381
         185           3           2   268.62218   502.54607
         185           3           3   294.44258   550.85163
         185           3           4   258.28692   483.21058
         185           3           5   250.20843   468.09711
         185           4           1   255.90046   478.74592
         185           4           2   281.43779   526.52190
         185           4           3   308.19382   576.57783
         185           4           4   260.27634   486.93244
         185           4           5   256.37779   479.63892
         185           5           1   262.05274   490.25578
         185           5           2   289.44248   541.49729
         185           5           3   313.61000   586.71059
         185           5           4   261.97463   490.10966
         185           5           5   259.43735   485.36283
         186           1           1   262.05274   490.25578
         186           1           2   289.44248   541.49729
         186           1           3   313.61000   586.71059
         186           1           4   261.97463   490.10966
         186           1           5   259.43735   485.36283
         186           2           1   268.18732   501.73253
         186           2           2   297.44716   556.47269
         186           2           3   316.91869   592.90057
         186           2           4   263.86938   493.65441
         186           2           5   262.49691   491.08675
         186           3           1   280.88651   525.49055
         186           3           2   310.52207   580.93361
         186           3           3   324.27219   606.65771
         186           3           4   267.49713   500.44131
         186           3           5   263.26524   492.52416
         186           4           1   295.81414   553.41759
         186           4           2   321.76674   601.97044
         186           4           3   333.36184   623.66290
         186           4           4   273.96065   512.53344
         186           4           5   264.79183   495.38016
         186           5           1   303.84759   568.44679
         186           5           2   325.47883   608.91513
         186           5           3   336.80230   630.09941
         186           5           4   277.69001   519.51043
         186           5           5   265.93646   497.52156
         187           1           1   303.84759   568.44679
         187           1           2   325.47883   608.91513
         187           1           3   336.80230   630.09941
         187           1           4   277.69001   519.51043
         187           1           5   265.93646   497.52156
         187           2           1   312.67489   584.96115
         187           2           2   329.19092   615.85982
         187           2           3   341.39336   638.68850
         187           2           4   279.81620   523.48818
         187           2           5   265.95100   497.54875
         187           3           1   328.68463   614.91264
         187           3           2   336.81406   630.12140
         187           3           3   348.65356   652.27108
         187           3           4   285.94657   534.95706
         187           3           5   266.10752   497.84159
         187           4           1   342.29075   640.36736
         187           4           2   345.15147   645.71928
         187           4           3   355.96025   665.94064
         187           4           4   294.52204   551.00029
         187           4           5   268.38012   502.09324
         187           5           1   345.71534   646.77417
         187           5           2   344.22895   643.99340
         187           5           3   359.97245   673.44678
         187           5           4   298.51821   558.47643
         187           5           5   269.28714   503.79012
         188           1           1   345.71534   646.77417
         188           1           2   344.22895   643.99340
         188           1           3   359.97245   673.44678
         188           1           4   298.51821   558.47643
         188           1           5   269.28714   503.79012
         188           2           1   351.06445   656.78144
         188           2           2   343.27680   642.21209
         188           2           3   362.74132   678.62688
         188           2           4   302.95852   566.78349
         188           2           5   270.29708   505.67952
         188           3           1   359.18402   671.97176
         188           3           2   342.76817   641.26052
         188           3           3   365.89766   684.53185
         188           3           4   311.59180   582.93487
         188           3           5   272.07215   509.00038
         188           4           1   363.93145   680.85340
         188           4           2   343.30802   642.27050
         188           4           3   368.80384   689.96881
         188           4           4   318.62249   596.08810
         188           4           5   275.33278   515.10046
         188           5           1   364.72835   682.34427
         188           5           2   342.89404   641.49601
         188           5           3   370.38321   692.92354
         188           5           4   322.16215   602.71019
         188           5           5   277.56012   519.26744
         189           1           1   364.72835   682.34427
         189           1           2   342.89404   641.49601
         189           1           3   370.38321   692.92354
         189           1           4   322.16215   602.71019
         189           1           5   277.56012   519.26744
         189           2           1   365.22516   683.27370
         189           2           2   342.39646   640.56513
         189           2           3   371.96575   695.88420
         189           2           4   325.58301   609.11004
         189           2           5   281.70117   527.01463
         189           3           1   363.73988   680.49501
         189           3           2   344.72003   644.91212
         189           3           3   376.75176   704.83800
         189           3           4   331.51437   620.20660
         189           3           5   288.30806   539.37499
         189           4           1   362.43074   678.04582
         189           4           2   350.60657   655.92483
         189           4           3   383.08686   716.68989
         189           4           4   334.59395   625.96795
         189           4           5   292.92022   548.00355
         189           5           1   364.73067   682.34860
         189           5           2   355.22860   664.57186
         189           5           3   385.55872   721.31432
         189           5           4   338.89947   634.02286
         189           5           5   295.31604   552.48572
         190           1           1   364.73067   682.34860
         190           1           2   355.22860   664.57186
         190           1           3   385.55872   721.31432
         190           1           4   338.89947   634.02286
         190           1           5   295.31604   552.48572
         190           2           1   364.38206   681.69641
         190           2           2   360.15567   673.78956
         190           2           3   387.90908   725.71145
         190           2           4   342.51666   640.78999
         190           2           5   297.85254   557.23109
         190           3           1   362.47684   678.13208
         190           3           2   369.17496   690.66311
         190           3           3   387.62875   725.18699
         190           3           4   346.26319   647.79911
         190           3           5   302.23829   565.43606
         190           4           1   360.42942   674.30171
         190           4           2   377.79828   706.79586
         190           4           3   387.66319   725.25142
         190           4           4   350.20825   655.17964
         190           4           5   306.08171   572.62644
         190           5           1   361.73114   676.73700
         190           5           2   380.39923   711.66179
         190           5           3   386.07824   722.28625
         190           5           4   352.89735   660.21049
         190           5           5   306.86434   574.09062
         191           1           1   361.73114   676.73700
         191           1           2   380.39923   711.66179
         191           1           3   386.07824   722.28625
         191           1           4   352.89735   660.21049
         191           1           5   306.86434   574.09062
         191           2           1   359.95563   673.41532
         191           2           2   382.65412   715.88030
         191           2           3   384.13892   718.65812
         191           2           4   355.41843   664.92699
         191           2           5   307.16204   574.64756
         191           3           1   357.98123   669.72155
         191           3           2   387.49026   724.92790
         191           3           3   377.61797   706.45854
         191           3           4   359.42174   672.41651
         191           3           5   309.32950   578.70250
         191           4           1   359.97767   673.45654
         191           4           2   393.27431   735.74886
         191           4           3   370.46961   693.08517
         191           4           4   364.25687   681.46221
         191           4           5   313.39114   586.30113
         191           5           1   363.51600   680.07616
         191           5           2   395.58650   740.07458
         191           5           3   367.55079   687.62456
         191           5           4   364.45848   681.83938
         191           5           5   317.34188   593.69230
         192           1           1   363.51600   680.07616
         192           1           2   395.58650   740.07458
         192           1           3   367.55079   687.62456
         192           1           4   364.45848   681.83938
         192           1           5   317.34188   593.69230
         192           2           1   367.35418   687.25674
         192           2           2   397.66592   743.96481
         192           2           3   364.29152   681.52704
         192           2           4   363.21527   679.51355
         192           2           5   321.38314   601.25279
         192           3           1   370.88826   693.86840
         192           3           2   399.88039   748.10770
         192           3           3   365.74374   684.24388
         192           3           4   359.00651   671.63967
         192           3           5   328.10148   613.82166
         192           4           1   370.07950   692.35534
         192           4           2   399.34439   747.10495
         192           4           3   371.76494   695.50852
         192           4           4   358.24845   670.22148
         192           4           5   333.14358   623.25457
         192           5           1   370.47709   693.09918
         192           5           2   397.60874   743.85784
         192           5           3   371.52392   695.05761
         192           5           4   359.71411   672.96347
         192           5           5   334.06352   624.97562
         193           1           1   370.47709   693.09918
         193           1           2   397.60874   743.85784
         193           1           3   371.52392   695.05761
         193           1           4   359.71411   672.96347
         193           1           5   334.06352   624.97562
         193           2           1   371.23028   694.50826
         193           2           2   394.96496   738.91177
         193           2           3   373.01472   697.84664
         193           2           4   360.92958   675.23742
         193           2           5   334.83872   626.42588
         193           3           1   370.04145   692.28416
         193           3           2   390.03519   729.68903
         193           3           3   376.59145   704.53809
         193           3           4   360.21418   673.89902
         193           3           5   335.80849   628.24016
         193           4           1   368.56750   689.52665
         193           4           2   385.25432   720.74483
         193           4           3   380.77252   712.36015
         193           4           4   360.92578   675.23030
         193           4           5   335.44121   627.55303
         193           5           1   367.52181   687.57034
         193           5           2   384.17507   718.72574
         193           5           3   382.08503   714.81564
         193           5           4   363.38334   679.82797
         193           5           5   334.42344   625.64897
         194           1           1   367.52181   687.57034
         194           1           2   384.17507   718.72574
         194           1           3   382.08503   714.81564
         194           1           4   363.38334   679.82797
         194           1           5   334.42344   625.64897
         194           2           1   366.67911   685.99380
         194           2           2   383.75633   717.94236
         194           2           3   383.46720   717.40144
         194           2           4   366.38332   685.44042
         194           2           5   332.94913   622.89079
         194           3           1   365.83382   684.41241
         194           3           2   383.29501   717.07930
         194           3           3   387.02087   724.04975
         194           3           4   368.38210   689.17980
         194           3           5   332.88857   622.77749
         194           4           1   371.61716   695.23204
         194           4           2   383.68498   717.80887
         194           4           3   391.84767   733.07986
         194           4           4   370.21639   692.61145
         194           4           5   335.14728   627.00316
         194           5           1   373.71206   699.15125
         194           5           2   385.06351   720.38786
         194           5           3   394.94019   738.86544
         194           5           4   369.58671   691.43342
         194           5           5   336.97734   630.42688
         195           1           1   373.71206   699.15125
         195           1           2   385.06351   720.38786
         195           1           3   394.94019   738.86544
         195           1           4   369.58671   691.43342
         195           1           5   336.97734   630.42688
         195           2           1   374.84364   701.26823
         195           2           2   387.37785   724.71759
         195           2           3   398.00328   744.59596
         195           2           4   368.81765   689.99464
         195           2           5   336.34486   629.24361
         195           3           1   377.34402   705.94602
         195           3           2   392.59844   734.48444
         195           3           3   406.12723   759.79448
         195           3           4   366.71232   686.05592
         195           3           5   335.55793   627.77140
         195           4           1   376.65667   704.66010
         195           4           2   399.82851   748.01065
         195           4           3   405.55922   758.73182
         195           4           4   364.95110   682.76100
         195           4           5   335.85150   628.32063
         195           5           1   377.26520   705.79857
         195           5           2   402.93247   753.81763
         195           5           3   406.52469   760.53806
         195           5           4   363.77908   680.56834
         195           5           5   336.45725   629.45388
         196           1           1   377.26520   705.79857
         196           1           2   402.93247   753.81763
         196           1           3   406.52469   760.53806
         196           1           4   363.77908   680.56834
         196           1           5   336.45725   629.45388
         196           2           1   375.16992   701.87865
         196           2           2   405.61774   758.84131
         196           2           3   408.17669   763.62867
         196           2           4   362.46770   678.11497
         196           2           5   336.80734   630.10883
         196           3           1   369.99125   692.19024
         196           3           2   409.48645   766.07901
         196           3           3   411.66611   770.15678
         196           3           4   360.37247   674.19516
         196           3           5   339.38674   634.93445
         196           4           1   367.76530   688.02587
         196           4           2   409.91956   766.88927
         196           4           3   416.62356   779.43130
         196           4           4   357.19697   668.25433
         196           4           5   341.44410   638.78342
         196           5           1   366.14915   685.00234
         196           5           2   408.79798   764.79099
         196           5           3   415.41405   777.16853
         196           5           4   356.90963   667.71678
         196           5           5   342.49561   640.75061
         197           1           1   366.14915   685.00234
         197           1           2   408.79798   764.79099
         197           1           3   415.41405   777.16853
         197           1           4   356.90963   667.71678
         197           1           5   342.49561   640.75061
         197           2           1   364.99533   682.84373
         197           2           2   405.96622   759.49325
         197           2           3   414.10083   774.71172
         197           2           4   357.30101   668.44898
         197           2           5   343.14476   641.96507
         197           3           1   363.85482   680.71004
         197           3           2   399.50832   747.41163
         197           3           3   411.13737   769.16759
         197           3           4   358.95427   671.54194
         197           3           5   344.96478   645.37002
         197           4           1   360.26943   674.00239
         197           4           2   388.95028   727.65935
         197           4           3   408.53804   764.30468
         197           4           4   360.89653   675.17559
         197           4           5   349.06246   653.03606
         197           5           1   357.79979   669.38212
         197           5           2   384.08517   718.55755
         197           5           3   407.43507   762.24122
         197           5           4   360.90292   675.18753
         197           5           5   348.23508   651.48819
         198           1           1   357.79979   669.38212
         198           1           2   384.08517   718.55755
         198           1           3   407.43507   762.24122
         198           1           4   360.90292   675.18753
         198           1           5   348.23508   651.48819
         198           2           1   356.98921   667.86565
         198           2           2   380.23604   711.35649
         198           2           3   406.27677   760.07424
         198           2           4   359.71756   672.96994
         198           2           5   348.38310   651.76511
         198           3           1   357.58694   668.98391
         198           3           2   372.78848   697.42339
         198           3           3   402.25057   752.54191
         198           3           4   359.89182   673.29594
         198           3           5   348.49401   651.97258
         198           4           1   352.84364   660.11001
         198           4           2   364.73310   682.35315
         198           4           3   400.07138   748.46503
         198           4           4   358.98824   671.60551
         198           4           5   348.74257   652.43760
         198           5           1   350.05143   654.88626
         198           5           2   360.55191   674.53085
         198           5           3   398.62690   745.76265
         198           5           4   358.36216   670.43420
         198           5           5   348.01971   651.08525
         199           1           1   350.05143   654.88626
         199           1           2   360.55191   674.53085
         199           1           3   398.62690   745.76265
         199           1           4   358.36216   670.43420
         199           1           5   348.01971   651.08525
         199           2           1   346.78562   648.77648
         199           2           2   356.28023   666.53927
         199           2           3   397.32591   743.32871
         199           2           4   356.70116   667.32677
         199           2           5   345.67166   646.69246
         199           3           1   339.83515   635.77335
         199           3           2   348.74721   652.44628
         199           3           3   392.95097   735.14394
         199           3           4   350.98107   656.62546
         199           3           5   340.31540   636.67182
         199           4           1   335.87448   628.36361
         199           4           2   343.97594   643.52007
         199           4           3   385.22044   720.68145
         199           4           4   343.04339   641.77541
         199           4           5   331.79391   620.72957
         199           5           1   332.94681   622.88645
         199           5           2   341.27096   638.45951
         199           5           3   381.16461   713.09369
         199           5           4   339.26779   634.71191
         199           5           5   329.12929   615.74452
         200           1           1   332.94681   622.88645
         200           1           2   341.27096   638.45951
         200           1           3   381.16461   713.09369
         200           1           4   339.26779   634.71191
         200           1           5   329.12929   615.74452
         200           2           1   328.06426   613.75203
         200           2           2   338.17482   632.66715
         200           2           3   377.23076   705.73412
         200           2           4   336.05387   628.69923
         200           2           5   327.00801   611.77596
         200           3           1   319.59760   597.91236
         200           3           2   331.96018   621.04063
         200           3           3   369.50292   691.27666
         200           3           4   330.21086   617.76795
         200           3           5   321.75987   601.95761
         200           4           1   314.82503   588.98370
         200           4           2   323.86878   605.90300
         200           4           3   361.08149   675.52162
         200           4           4   326.94763   611.66301
         200           4           5   313.57425   586.64371
         200           5           1   312.08985   583.86664
         200           5           2   319.59002   597.89819
         200           5           3   359.75073   673.03199
         200           5           4   325.93482   609.76822
         200           5           5   311.23627   582.26974
         201           1           1   312.08985   583.86664
         201           1           2   319.59002   597.89819
         201           1           3   359.75073   673.03199
         201           1           4   325.93482   609.76822
         201           1           5   311.23627   582.26974
         201           2           1   311.72530   583.18464
         201           2           2   315.38548   590.03221
         201           2           3   357.19416   668.24908
         201           2           4   326.58511   610.98479
         201           2           5   309.14955   578.36585
         201           3           1   312.99476   585.55959
         201           3           2   307.39284   575.07935
         201           3           3   352.98390   660.37240
         201           3           4   323.68111   605.55190
         201           3           5   304.61233   569.87748
         201           4           1   307.80099   575.84293
         201           4           2   299.21586   559.78162
         201           4           3   350.30196   655.35496
         201           4           4   321.48905   601.45093
         201           4           5   302.30248   565.55615
         201           5           1   302.18903   565.34391
         201           5           2   294.93226   551.76773
         201           5           3   348.84661   652.63224
         201           5           4   319.68614   598.07800
         201           5           5   301.64702   564.32990
         202           1           1   302.18903   565.34391
         202           1           2   294.93226   551.76773
         202           1           3   348.84661   652.63224
         202           1           4   319.68614   598.07800
         202           1           5   301.64702   564.32990
         202           2           1   296.48405   554.67086
         202           2           2   291.25725   544.89241
         202           2           3   345.69987   646.74523
         202           2           4   318.05462   595.02572
         202           2           5   300.90539   562.94243
         202           3           1   286.16754   535.37045
         202           3           2   284.30241   531.88110
         202           3           3   339.16596   634.52140
         202           3           4   316.35764   591.85094
         202           3           5   298.83273   559.06485
         202           4           1   279.22763   522.38706
         202           4           2   277.48723   519.13108
         202           4           3   334.31009   625.43690
         202           4           4   312.13298   583.94734
         202           4           5   300.36086   561.92371
         202           5           1   275.39782   515.22214
         202           5           2   274.19793   512.97735
         202           5           3   331.79000   620.72225
         202           5           4   310.43717   580.77477
         202           5           5   300.82302   562.78834
         203           1           1   275.39782   515.22214
         203           1           2   274.19793   512.97735
         203           1           3   331.79000   620.72225
         203           1           4   310.43717   580.77477
         203           1           5   300.82302   562.78834
         203           2           1   272.43505   509.67931
         203           2           2   271.94893   508.76987
         203           2           3   330.52400   618.35379
         203           2           4   308.89691   577.89321
         203           2           5   299.80322   560.88048
         203           3           1   264.75717   495.31532
         203           3           2   267.73549   500.88724
         203           3           3   329.20801   615.89179
         203           3           4   307.71823   575.68809
         203           3           5   300.37466   561.94953
         203           4           1   254.78212   476.65369
         203           4           2   264.54906   494.92598
         203           4           3   331.74543   620.63886
         203           4           4   310.09639   580.13722
         203           4           5   298.72404   558.86150
         203           5           1   250.02994   467.76318
         203           5           2   263.13088   492.27281
         203           5           3   332.65823   622.34657
         203           5           4   313.45870   586.42754
         203           5           5   298.17118   557.82721
         204           1           1   250.02994   467.76318
         204           1           2   263.13088   492.27281
         204           1           3   332.65823   622.34657
         204           1           4   313.45870   586.42754
         204           1           5   298.17118   557.82721
         204           2           1   247.58797   463.19468
         204           2           2   263.78031   493.48777
         204           2           3   333.47805   623.88030
         204           2           4   315.30196   589.87596
         204           2           5   301.25557   563.59757
         204           3           1   239.00384   447.13523
         204           3           2   265.01225   495.79252
         204           3           3   333.85729   624.58979
         204           3           4   323.45925   605.13685
         204           3           5   305.52807   571.59067
         204           4           1   241.87172   452.50055
         204           4           2   266.29977   498.20125
         204           4           3   333.27375   623.49809
         204           4           4   327.19267   612.12144
         204           4           5   311.11650   582.04568
         204           5           1   243.39124   455.34331
         204           5           2   266.97477   499.46406
         204           5           3   333.40505   623.74374
         204           5           4   328.72031   614.97938
         204           5           5   314.25972   587.92610
         205           1           1   266.79555   499.12876
         205           1           2   245.72895   459.71676
         205           1           3   241.71182   452.20141
         205           1           4   235.64426   440.85005
         205           1           5   231.75065   433.56577
         205           2           1   268.90403   503.07337
         205           2           2   245.95015   460.13060
         205           2           3   238.75036   446.66102
         205           2           4   234.97817   439.60390
         205           2           5   230.83867   431.85961
         205           3           1   273.47005   511.61561
         205           3           2   248.19604   464.33226
         205           3           3   235.62216   440.80870
         205           3           4   234.64513   438.98084
         205           3           5   229.46860   429.29643
         205           4           1   277.13395   518.47015
         205           4           2   250.70269   469.02179
         205           4           3   235.38018   440.35600
         205           4           4   231.86848   433.78621
         205           4           5   230.06070   430.40416
         205           5           1   276.56695   517.40938
         205           5           2   250.71235   469.03985
         205           5           3   234.01436   437.80078
         205           5           4   230.05300   430.38976
         205           5           5   228.74461   427.94198
         206           1           1   276.56695   517.40938
         206           1           2   250.71235   469.03985
         206           1           3   234.01436   437.80078
         206           1           4   230.05300   430.38976
         206           1           5   228.74461   427.94198
         206           2           1   275.69227   515.77301
         206           2           2   250.72200   469.05792
         206           2           3   232.64854   435.24557
         206           2           4   228.59767   427.66708
         206           2           5   227.42852   425.47980
         206           3           1   273.17632   511.06610
         206           3           2   251.91931   471.29787
         206           3           3   232.56251   435.08461
         206           3           4   224.77411   420.51385
         206           3           5   224.06515   419.18751
         206           4           1   271.47576   507.88464
         206           4           2   253.79490   474.80678
         206           4           3   232.91901   435.75157
         206           4           4   216.97682   405.92647
         206           4           5   221.22915   413.88184
         206           5           1   269.36002   503.92645
         206           5           2   255.35063   477.71728
         206           5           3   233.70701   437.22578
         206           5           4   214.16336   400.66296
         206           5           5   220.07071   411.71460
         207           1           1   269.36002   503.92645
         207           1           2   255.35063   477.71728
         207           1           3   233.70701   437.22578
         207           1           4   214.16336   400.66296
         207           1           5   220.07071   411.71460
         207           2           1   267.24427   499.96826
         207           2           2   256.90635   480.62778
         207           2           3   234.49502   438.70000
         207           2           4   211.56476   395.80142
         207           2           5   218.90995   409.54302
         207           3           1   267.11982   499.73542
         207           3           2   260.80565   487.92269
         207           3           3   232.61703   435.18662
         207           3           4   208.40897   389.89748
         207           3           5   217.99666   407.83440
         207           4           1   262.48562   491.06563
         207           4           2   265.41846   496.55246
         207           4           3   231.17566   432.49005
         207           4           4   204.68236   382.92563
         207           4           5   217.43380   406.78140
         207           5           1   260.77674   487.86860
         207           5           2   266.87309   499.27384
         207           5           3   233.51918   436.87438
         207           5           4   202.86476   379.52521
         207           5           5   215.42866   403.03011
         208           1           1   260.77674   487.86860
         208           1           2   266.87309   499.27384
         208           1           3   233.51918   436.87438
         208           1           4   202.86476   379.52521
         208           1           5   215.42866   403.03011
         208           2           1   259.06785   484.67157
         208           2           2   268.32773   501.99522
         208           2           3   235.86270   441.25871
         208           2           4   201.52608   377.02078
         208           2           5   213.42351   399.27883
         208           3           1   255.20977   477.45377
         208           3           2   267.97945   501.34365
         208           3           3   236.60728   442.65170
         208           3           4   197.05502   368.65619
         208           3           5   208.08868   389.29828
         208           4           1   250.16844   468.02229
         208           4           2   267.57627   500.58936
         208           4           3   233.25676   436.38343
         208           4           4   194.71396   364.27646
         208           4           5   200.52256   375.14335
         208           5           1   249.13949   466.09731
         208           5           2   268.70374   502.69866
         208           5           3   232.26987   434.53713
         208           5           4   193.75808   362.48818
         208           5           5   197.90900   370.25384
         209           1           1   249.13949   466.09731
         209           1           2   268.70374   502.69866
         209           1           3   232.26987   434.53713
         209           1           4   193.75808   362.48818
         209           1           5   197.90900   370.25384
         209           2           1   248.36979   464.65734
         209           2           2   270.09546   505.30235
         209           2           3   231.20101   432.53748
         209           2           4   191.24770   357.79168
         209           2           5   195.29544   365.36432
         209           3           1   250.20843   468.09711
         209           3           2   270.26374   505.61716
         209           3           3   227.39789   425.42250
         209           3           4   183.90442   344.05367
         209           3           5   191.20773   357.71690
         209           4           1   256.37779   479.63892
         209           4           2   269.21089   503.64746
         209           4           3   222.15917   415.62175
         209           4           4   185.90080   347.78855
         209           4           5   185.95103   347.88252
         209           5           1   259.43735   485.36283
         209           5           2   267.85524   501.11127
         209           5           3   218.63060   409.02040
         209           5           4   185.17125   346.42369
         209           5           5   184.18279   344.57444
         210           1           1   259.43735   485.36283
         210           1           2   267.85524   501.11127
         210           1           3   218.63060   409.02040
         210           1           4   185.17125   346.42369
         210           1           5   184.18279   344.57444
         210           2           1   262.49691   491.08675
         210           2           2   266.49959   498.57507
         210           2           3   215.25879   402.71232
         210           2           4   184.03339   344.29495
         210           2           5   182.41455   341.26637
         210           3           1   263.26524   492.52416
         210           3           2   266.17944   497.97613
         210           3           3   210.13585   393.12818
         210           3           4   184.56195   345.28380
         210           3           5   180.52408   337.72964
         210           4           1   264.79183   495.38016
         210           4           2   266.89303   499.31114
         210           4           3   205.93333   385.26599
         210           4           4   181.91516   340.33209
         210           4           5   180.74424   338.14152
         210           5           1   265.93646   497.52156
         210           5           2   269.30334   503.82042
         210           5           3   206.31908   385.98765
         210           5           4   179.84092   336.45156
         210           5           5   181.45489   339.47101
         211           1           1   265.93646   497.52156
         211           1           2   269.30334   503.82042
         211           1           3   206.31908   385.98765
         211           1           4   179.84092   336.45156
         211           1           5   181.45489   339.47101
         211           2           1   265.95100   497.54875
         211           2           2   271.78667   508.46630
         211           2           3   206.70482   386.70931
         211           2           4   179.06498   334.99990
         211           2           5   182.16553   340.80050
         211           3           1   266.10752   497.84159
         211           3           2   274.11818   512.82815
         211           3           3   207.65050   388.47851
         211           3           4   181.99004   340.47220
         211           3           5   181.31961   339.21793
         211           4           1   268.38012   502.09324
         211           4           2   274.21451   513.00838
         211           4           3   211.41714   395.52526
         211           4           4   180.86169   338.36123
         211           4           5   180.42036   337.53558
         211           5           1   269.28714   503.79012
         211           5           2   273.70252   512.05052
         211           5           3   212.14768   396.89196
         211           5           4   180.51195   337.70693
         211           5           5   179.19544   335.24397
         212           1           1   269.28714   503.79012
         212           1           2   273.70252   512.05052
         212           1           3   212.14768   396.89196
         212           1           4   180.51195   337.70693
         212           1           5   179.19544   335.24397
         212           2           1   270.29708   505.67952
         212           2           2   272.70374   510.18199
         212           2           3   212.87122   398.24558
         212           2           4   180.27740   337.26813
         212           2           5   177.60523   332.26896
         212           3           1   272.07215   509.00038
         212           3           2   270.47845   506.01885
         212           3           3   214.35346   401.01861
         212           3           4   183.09339   342.53637
         212           3           5   176.87793   330.90831
         212           4           1   275.33278   515.10046
         212           4           2   266.74863   499.04099
         212           4           3   214.31913   400.95439
         212           4           4   186.53921   348.98290
         212           4           5   178.09902   333.19277
         212           5           1   277.56012   519.26744
         212           5           2   266.00252   497.64515
         212           5           3   215.59224   403.33614
         212           5           4   189.22835   354.01382
         212           5           5   177.41057   331.90478
         213           1           1   277.56012   519.26744
         213           1           2   266.00252   497.64515
         213           1           3   215.59224   403.33614
         213           1           4   189.22835   354.01382
         213           1           5   177.41057   331.90478
         213           2           1   281.70117   527.01463
         213           2           2   264.63089   495.07906
         213           2           3   216.95368   405.88316
         213           2           4   191.47762   358.22183
         213           2           5   176.63094   330.44623
         213           3           1   288.30806   539.37499
         213           3           2   265.07624   495.91224
         213           3           3   219.75060   411.11574
         213           3           4   188.73205   353.08533
         213           3           5   175.98733   329.24215
         213           4           1   292.92022   548.00355
         213           4           2   268.75800   502.80018
         213           4           3   219.09633   409.89171
         213           4           4   184.10341   344.42594
         213           4           5   174.87395   327.15920
         213           5           1   295.31604   552.48572
         213           5           2   270.81994   506.65771
         213           5           3   219.57626   410.78957
         213           5           4   182.93936   342.24821
         213           5           5   175.56310   328.44848
         214           1           1   295.31604   552.48572
         214           1           2   270.81994   506.65771
         214           1           3   219.57626   410.78957
         214           1           4   182.93936   342.24821
         214           1           5   175.56310   328.44848
         214           2           1   297.85254   557.23109
         214           2           2   272.97593   510.69120
         214           2           3   220.17141   411.90298
         214           2           4   181.94808   340.39369
         214           2           5   176.43050   330.07125
         214           3           1   302.23829   565.43606
         214           3           2   274.58571   513.70282
         214           3           3   221.00149   413.45592
         214           3           4   181.29303   339.16820
         214           3           5   176.03161   329.32499
         214           4           1   306.08171   572.62644
         214           4           2   272.54313   509.88152
         214           4           3   221.94716   415.22511
         214           4           4   184.33375   344.85688
         214           4           5   172.40919   322.54806
         214           5           1   306.86434   574.09062
         214           5           2   273.66073   511.97234
         214           5           3   223.94213   418.95737
         214           5           4   185.73724   347.48255
         214           5           5   172.20449   322.16509
         215           1           1   306.86434   574.09062
         215           1           2   273.66073   511.97234
         215           1           3   223.94213   418.95737
         215           1           4   185.73724   347.48255
         215           1           5   172.20449   322.16509
         215           2           1   307.16204   574.64756
         215           2           2   275.48154   515.37877
         215           2           3   226.36362   423.48755
         215           2           4   187.09667   350.02583
         215           2           5   172.66955   323.03514
         215           3           1   309.32950   578.70250
         215           3           2   280.43421   524.64437
         215           3           3   234.68487   439.05519
         215           3           4   192.68791   360.48607
         215           3           5   172.98582   323.62684
         215           4           1   313.39114   586.30113
         215           4           2   287.42804   537.72862
         215           4           3   247.96637   463.90261
         215           4           4   202.00297   377.91294
         215           4           5   172.55883   322.82802
         215           5           1   317.34188   593.69230
         215           5           2   290.66023   543.77549
         215           5           3   253.22026   473.73173
         215           5           4   207.21323   387.66045
         215           5           5   175.74256   328.78422
         216           1           1   317.34188   593.69230
         216           1           2   290.66023   543.77549
         216           1           3   253.22026   473.73173
         216           1           4   207.21323   387.66045
         216           1           5   175.74256   328.78422
         216           2           1   321.38314   601.25279
         216           2           2   293.87368   549.78731
         216           2           3   258.59050   483.77853
         216           2           4   212.42369   397.40834
         216           2           5   179.72028   336.22586
         216           3           1   328.10148   613.82166
         216           3           2   298.41340   558.28035
         216           3           3   269.29850   503.81136
         216           3           4   221.69783   414.75867
         216           3           5   187.17815   350.17826
         216           4           1   333.14358   623.25457
         216           4           2   300.48192   562.15020
         216           4           3   280.48025   524.73050
         216           4           4   231.70889   433.48763
         216           4           5   199.25472   372.77144
         216           5           1   334.06352   624.97562
         216           5           2   300.94638   563.01913
         216           5           3   283.08463   529.60285
         216           5           4   235.36294   440.32375
         216           5           5   202.53798   378.91386
         217           1           1   334.06352   624.97562
         217           1           2   300.94638   563.01913
         217           1           3   283.08463   529.60285
         217           1           4   235.36294   440.32375
         217           1           5   202.53798   378.91386
         217           2           1   334.83872   626.42588
         217           2           2   300.43110   562.05513
         217           2           3   285.31533   533.77610
         217           2           4   238.84783   446.84336
         217           2           5   204.63481   382.83668
         217           3           1   335.80849   628.24016
         217           3           2   300.38656   561.97179
         217           3           3   287.15270   537.21351
         217           3           4   244.87511   458.11938
         217           3           5   208.41989   389.91791
         217           4           1   335.44121   627.55303
         217           4           2   303.02633   566.91036
         217           4           3   286.73102   536.42462
         217           4           4   249.27993   466.36005
         217           4           5   211.86000   396.35377
         217           5           1   334.42344   625.64897
         217           5           2   303.37700   567.56639
         217           5           3   288.53988   539.80869
         217           5           4   251.80144   471.07736
         217           5           5   215.92112   403.95142
         218           1           1   334.42344   625.64897
         218           1           2   303.37700   567.56639
         218           1           3   288.53988   539.80869
         218           1           4   251.80144   471.07736
         218           1           5   215.92112   403.95142
         218           2           1   332.94913   622.89079
         218           2           2   303.15039   567.14245
         218           2           3   289.51473   541.63246
         218           2           4   254.48039   476.08922
         218           2           5   221.19563   413.81912
         218           3           1   332.88857   622.77749
         218           3           2   303.90729   568.55847
         218           3           3   294.22630   550.44700
         218           3           4   261.46336   489.15316
         218           3           5   229.69621   429.72226
         218           4           1   335.14728   627.00316
         218           4           2   305.05093   570.69803
         218           4           3   299.91429   561.08826
         218           4           4   267.80961   501.02589
         218           4           5   235.07161   439.77871
         218           5           1   336.97734   630.42688
         218           5           2   305.69719   571.90708
         218           5           3   303.42993   567.66541
         218           5           4   271.57431   508.06901
         218           5           5   237.57838   444.46846
         219           1           1   336.97734   630.42688
         219           1           2   305.69719   571.90708
         219           1           3   303.42993   567.66541
         219           1           4   271.57431   508.06901
         219           1           5   237.57838   444.46846
         219           2           1   336.34486   629.24361
         219           2           2   305.75799   572.02083
         219           2           3   307.31099   574.92622
         219           2           4   275.55847   515.52269
         219           2           5   239.03888   447.20079
         219           3           1   335.55793   627.77140
         219           3           2   306.84754   574.05918
         219           3           3   313.70285   586.88430
         219           3           4   281.32671   526.31408
         219           3           5   243.23772   455.05611
         219           4           1   335.85150   628.32063
         219           4           2   310.28619   580.49230
         219           4           3   316.80567   592.68913
         219           4           4   287.50252   537.86797
         219           4           5   251.54870   470.60453
         219           5           1   336.45725   629.45388
         219           5           2   312.73162   585.06729
         219           5           3   317.09126   593.22342
         219           5           4   289.14131   540.93387
         219           5           5   254.52063   476.16450
         220           1           1   336.45725   629.45388
         220           1           2   312.73162   585.06729
         220           1           3   317.09126   593.22342
         220           1           4   289.14131   540.93387
         220           1           5   254.52063   476.16450
         220           2           1   336.80734   630.10883
         220           2           2   316.20974   591.57425
         220           2           3   316.16155   591.48411
         220           2           4   290.18324   542.88313
         220           2           5   256.22231   479.34805
         220           3           1   339.38674   634.93445
         220           3           2   321.24318   600.99096
         220           3           3   316.11375   591.39467
         220           3           4   294.28465   550.55617
         220           3           5   259.03566   484.61135
         220           4           1   341.44410   638.78342
         220           4           2   322.68393   603.68635
         220           4           3   316.24011   591.63107
         220           4           4   300.03256   561.30952
         220           4           5   262.31861   490.75318
         220           5           1   342.49561   640.75061
         220           5           2   323.62504   605.44701
         220           5           3   317.99547   594.91504
         220           5           4   302.29387   565.54005
         220           5           5   264.15504   494.18882
         221           1           1   342.49561   640.75061
         221           1           2   323.62504   605.44701
         221           1           3   317.99547   594.91504
         221           1           4   302.29387   565.54005
         221           1           5   264.15504   494.18882
         221           2           1   343.14476   641.96507
         221           2           2   324.02336   606.19219
         221           2           3   321.41682   601.31580
         221           2           4   304.19323   569.09342
         221           2           5   265.40855   496.53393
         221           3           1   344.96478   645.37002
         221           3           2   324.56906   607.21311
         221           3           3   328.30707   614.20628
         221           3           4   302.89199   566.65902
         221           3           5   267.03471   499.57621
         221           4           1   349.06246   653.03606
         221           4           2   324.41955   606.93341
         221           4           3   331.29867   619.80306
         221           4           4   302.25561   565.46846
         221           4           5   266.17019   497.95883
         221           5           1   348.23508   651.48819
         221           5           2   324.88403   607.80237
         221           5           3   331.28462   619.77678
         221           5           4   303.51252   567.81993
         221           5           5   265.10252   495.96141
         222           1           1   348.23508   651.48819
         222           1           2   324.88403   607.80237
         222           1           3   331.28462   619.77678
         222           1           4   303.51252   567.81993
         222           1           5   265.10252   495.96141
         222           2           1   348.38310   651.76511
         222           2           2   327.07595   611.90307
         222           2           3   330.81773   618.90329
         222           2           4   305.11679   570.82124
         222           2           5   264.43310   494.70903
         222           3           1   348.49401   651.97258
         222           3           2   329.73898   616.88515
         222           3           3   329.44079   616.32727
         222           3           4   305.00517   570.61242
         222           3           5   262.31517   490.74674
         222           4           1   348.74257   652.43760
         222           4           2   328.76832   615.06921
         222           4           3   325.68395   609.29887
         222           4           4   305.09163   570.77418
         222           4           5   262.20535   490.54129
         222           5           1   348.01971   651.08525
         222           5           2   328.66483   614.87560
         222           5           3   321.86473   602.15378
         222           5           4   304.46617   569.60404
         222           5           5   263.16740   492.34113
         223           1           1   348.01971   651.08525
         223           1           2   328.66483   614.87560
         223           1           3   321.86473   602.15378
         223           1           4   304.46617   569.60404
         223           1           5   263.16740   492.34113
         223           2           1   345.67166   646.69246
         223           2           2   329.31681   616.09534
         223           2           3   318.62108   596.08546
         223           2           4   303.24400   567.31759
         223           2           5   266.01553   497.66948
         223           3           1   340.31540   636.67182
         223           3           2   329.85654   617.10507
         223           3           3   313.70278   586.88417
         223           3           4   302.58605   566.08666
         223           3           5   270.85715   506.72733
         223           4           1   331.79391   620.72957
         223           4           2   332.24293   621.56960
         223           4           3   314.80487   588.94598
         223           4           4   297.25425   556.11178
         223           4           5   270.01220   505.14656
         223           5           1   329.12929   615.74452
         223           5           2   331.68221   620.52059
         223           5           3   314.27579   587.95616
         223           5           4   293.91396   549.86267
         223           5           5   269.10632   503.45182
         224           1           1   329.12929   615.74452
         224           1           2   331.68221   620.52059
         224           1           3   314.27579   587.95616
         224           1           4   293.91396   549.86267
         224           1           5   269.10632   503.45182
         224           2           1   327.00801   611.77596
         224           2           2   331.40926   620.00994
         224           2           3   314.71107   588.77050
         224           2           4   290.98809   544.38886
         224           2           5   267.08739   499.67476
         224           3           1   321.75987   601.95761
         224           3           2   330.61885   618.53124
         224           3           3   316.72437   592.53705
         224           3           4   280.92005   525.55329
         224           3           5   265.00612   495.78106
         224           4           1   313.57425   586.64371
         224           4           2   328.13563   613.88554
         224           4           3   322.66895   603.65833
         224           4           4   277.46613   519.09160
         224           4           5   265.65414   496.99339
         224           5           1   311.23627   582.26974
         224           5           2   326.33812   610.52271
         224           5           3   324.69592   607.45045
         224           5           4   277.84571   519.80174
         224           5           5   265.92370   497.49769
         225           1           1   311.23627   582.26974
         225           1           2   326.33812   610.52271
         225           1           3   324.69592   607.45045
         225           1           4   277.84571   519.80174
         225           1           5   265.92370   497.49769
         225           2           1   309.14955   578.36585
         225           2           2   323.33955   604.91291
         225           2           3   326.99504   611.75170
         225           2           4   278.41375   520.86443
         225           2           5   266.00072   497.64177
         225           3           1   304.61233   569.87748
         225           3           2   317.50066   593.98934
         225           3           3   330.89644   619.05055
         225           3           4   281.37723   526.40859
         225           3           5   266.04412   497.72298
         225           4           1   302.30248   565.55615
         225           4           2   310.47822   580.85157
         225           4           3   331.48663   620.15470
         225           4           4   285.01764   533.21918
         225           4           5   264.17298   494.22239
         225           5           1   301.64702   564.32990
         225           5           2   307.65664   575.57287
         225           5           3   330.79104   618.85337
         225           5           4   284.57195   532.38537
         225           5           5   263.12577   492.26324
         226           1           1   301.64702   564.32990
         226           1           2   307.65664   575.57287
         226           1           3   330.79104   618.85337
         226           1           4   284.57195   532.38537
         226           1           5   263.12577   492.26324
         226           2           1   300.90539   562.94243
         226           2           2   306.02546   572.52120
         226           2           3   329.70105   616.81419
         226           2           4   286.81304   536.57807
         226           2           5   263.26123   492.51667
         226           3           1   298.83273   559.06485
         226           3           2   303.07237   566.99648
         226           3           3   328.17299   613.95544
         226           3           4   293.34738   548.80269
         226           3           5   263.92132   493.75158
         226           4           1   300.36086   561.92371
         226           4           2   305.22825   571.02977
         226           4           3   326.76865   611.32816
         226           4           4   300.49140   562.16794
         226           4           5   263.44996   492.86975
         226           5           1   300.82302   562.78834
         226           5           2   306.31317   573.05947
         226           5           3   327.20198   612.13885
         226           5           4   301.74581   564.51472
         226           5           5   263.17269   492.35103
         227           1           1   300.82302   562.78834
         227           1           2   306.31317   573.05947
         227           1           3   327.20198   612.13885
         227           1           4   301.74581   564.51472
         227           1           5   263.17269   492.35103
         227           2           1   299.80322   560.88048
         227           2           2   307.08294   574.49958
         227           2           3   329.17891   615.83735
         227           2           4   303.28278   567.39013
         227           2           5   262.97341   491.97821
         227           3           1   300.37466   561.94953
         227           3           2   309.29770   578.64301
         227           3           3   331.75507   620.65689
         227           3           4   304.94458   570.49907
         227           3           5   263.08128   492.18002
         227           4           1   298.72404   558.86150
         227           4           2   312.72957   585.06346
         227           4           3   334.07884   625.00428
         227           4           4   303.69290   568.15740
         227           4           5   266.73994   499.02474
         227           5           1   298.17118   557.82721
         227           5           2   313.68041   586.84230
         227           5           3   335.34310   627.36950
         227           5           4   304.16521   569.04100
         227           5           5   267.57300   500.58324
         228           1           1   298.17118   557.82721
         228           1           2   313.68041   586.84230
         228           1           3   335.34310   627.36950
         228           1           4   304.16521   569.04100
         228           1           5   267.57300   500.58324
         228           2           1   301.25557   563.59757
         228           2           2   316.43677   591.99899
         228           2           3   337.21318   630.86809
         228           2           4   303.33313   567.48432
         228           2           5   267.43168   500.31885
         228           3           1   305.52807   571.59067
         228           3           2   322.78555   603.87647
         228           3           3   338.89565   634.01571
         228           3           4   302.18114   565.32915
         228           3           5   267.19139   499.86932
         228           4           1   311.11650   582.04568
         228           4           2   323.14177   604.54290
         228           4           3   340.66836   637.33214
         228           4           4   301.97986   564.95258
         228           4           5   265.95841   497.56262
         228           5           1   314.25972   587.92610
         228           5           2   323.00481   604.28667
         228           5           3   342.94815   641.59723
         228           5           4   301.70428   564.43703
         228           5           5   264.89258   495.56865
         229           1           1   231.75065   433.56577
         229           1           2   226.59671   423.92363
         229           1           3   181.99529   340.48202
         229           1           4   176.03399   329.32943
         229           1           5   187.46350   350.71209
         229           2           1   230.83867   431.85961
         229           2           2   222.95103   417.10319
         229           2           3   183.56073   343.41069
         229           2           4   175.27696   327.91317
         229           2           5   187.91859   351.56349
         229           3           1   229.46860   429.29643
         229           3           2   215.97344   404.04931
         229           3           3   184.01361   344.25794
         229           3           4   175.93323   329.14093
         229           3           5   189.38940   354.31513
         229           4           1   230.06070   430.40416
         229           4           2   208.79812   390.62552
         229           4           3   184.05965   344.34407
         229           4           4   176.97159   331.08354
         229           4           5   189.80452   355.09174
         229           5           1   228.74461   427.94198
         229           5           2   207.16669   387.57340
         229           5           3   185.04435   346.18629
         229           5           4   178.41227   333.77879
         229           5           5   186.97890   349.80548
         230           1           1   228.74461   427.94198
         230           1           2   207.16669   387.57340
         230           1           3   185.04435   346.18629
         230           1           4   178.41227   333.77879
         230           1           5   186.97890   349.80548
         230           2           1   227.42852   425.47980
         230           2           2   205.53527   384.52127
         230           2           3   186.02906   348.02851
         230           2           4   180.07535   336.89014
         230           2           5   184.15327   344.51923
         230           3           1   224.06515   419.18751
         230           3           2   202.21706   378.31347
         230           3           3   191.35157   357.98601
         230           3           4   182.54813   341.51628
         230           3           5   179.72328   336.23147
         230           4           1   221.22915   413.88184
         230           4           2   199.67296   373.55391
         230           4           3   197.55502   369.59161
         230           4           4   182.74404   341.88280
         230           4           5   176.04287   329.34605
         230           5           1   220.07071   411.71460
         230           5           2   198.31641   371.01603
         230           5           3   197.26727   369.05328
         230           5           4   181.72278   339.97219
         230           5           5   175.11205   327.60465
         231           1           1   220.07071   411.71460
         231           1           2   198.31641   371.01603
         231           1           3   197.26727   369.05328
         231           1           4   181.72278   339.97219
         231           1           5   175.11205   327.60465
         231           2           1   218.90995   409.54302
         231           2           2   196.73212   368.05209
         231           2           3   196.97952   368.51495
         231           2           4   181.24054   339.07000
         231           2           5   174.18123   325.86324
         231           3           1   217.99666   407.83440
         231           3           2   194.79423   364.42663
         231           3           3   197.80336   370.05620
         231           3           4   181.80117   340.11885
         231           3           5   174.29029   326.06727
         231           4           1   217.43380   406.78140
         231           4           2   194.05817   363.04959
         231           4           3   199.75962   373.71603
         231           4           4   182.85641   342.09302
         231           4           5   175.24049   327.84494
         231           5           1   215.42866   403.03011
         231           5           2   193.71639   362.41018
         231           5           3   200.91119   375.87042
         231           5           4   183.85303   343.95753
         231           5           5   175.32144   327.99638
         232           1           1   215.42866   403.03011
         232           1           2   193.71639   362.41018
         232           1           3   200.91119   375.87042
         232           1           4   183.85303   343.95753
         232           1           5   175.32144   327.99638
         232           2           1   213.42351   399.27883
         232           2           2   193.37461   361.77076
         232           2           3   202.06276   378.02480
         232           2           4   185.02007   346.14085
         232           2           5   175.40239   328.14783
         232           3           1   208.08868   389.29828
         232           3           2   195.56138   365.86183
         232           3           3   200.00936   374.18325
         232           3           4   184.84150   345.80678
         232           3           5   174.55530   326.56306
         232           4           1   200.52256   375.14335
         232           4           2   198.28708   370.96115
         232           4           3   195.72937   366.17613
         232           4           4   184.34677   344.88122
         232           4           5   173.13151   323.89940
         232           5           1   197.90900   370.25384
         232           5           2   199.59620   373.41031
         232           5           3   193.91989   362.79090
         232           5           4   184.17997   344.56918
         232           5           5   172.40386   322.53808
         233           1           1   197.90900   370.25384
         233           1           2   199.59620   373.41031
         233           1           3   193.91989   362.79090
         233           1           4   184.17997   344.56918
         233           1           5   172.40386   322.53808
         233           2           1   195.29544   365.36432
         233           2           2   202.28877   378.44764
         233           2           3   192.11041   359.40567
         233           2           4   184.39501   344.97148
         233           2           5   171.67620   321.17676
         233           3           1   191.20773   357.71690
         233           3           2   203.50595   380.72477
         233           3           3   193.21912   361.47988
         233           3           4   184.53984   345.24243
         233           3           5   170.45824   318.89816
         233           4           1   185.95103   347.88252
         233           4           2   201.79782   377.52916
         233           4           3   197.52590   369.53712
         233           4           4   184.99136   346.08714
         233           4           5   169.57127   317.23880
         233           5           1   184.18279   344.57444
         233           5           2   197.52733   369.53979
         233           5           3   199.62707   373.46805
         233           5           4   184.31436   344.82060
         233           5           5   170.99633   319.90485
         234           1           1   184.18279   344.57444
         234           1           2   197.52733   369.53979
         234           1           3   199.62707   373.46805
         234           1           4   184.31436   344.82060
         234           1           5   170.99633   319.90485
         234           2           1   182.41455   341.26637
         234           2           2   193.25683   361.55042
         234           2           3   201.72824   377.39899
         234           2           4   183.61286   343.50821
         234           2           5   172.42140   322.57090
         234           3           1   180.52408   337.72964
         234           3           2   186.25255   348.44662
         234           3           3   201.51221   376.99483
         234           3           4   181.87378   340.25469
         234           3           5   172.00785   321.79721
         234           4           1   180.74424   338.14152
         234           4           2   178.97787   334.83694
         234           4           3   199.18414   372.63941
         234           4           4   180.84896   338.33741
         234           4           5   169.15926   316.46799
         234           5           1   181.45489   339.47101
         234           5           2   176.34854   329.91791
         234           5           3   197.33224   369.17481
         234           5           4   180.23456   337.18798
         234           5           5   165.93670   310.43915
         235           1           1   181.45489   339.47101
         235           1           2   176.34854   329.91791
         235           1           3   197.33224   369.17481
         235           1           4   180.23456   337.18798
         235           1           5   165.93670   310.43915
         235           2           1   182.16553   340.80050
         235           2           2   173.71921   324.99888
         235           2           3   195.48033   365.71022
         235           2           4   179.70569   336.19856
         235           2           5   162.71415   304.41030
         235           3           1   181.31961   339.21793
         235           3           2   171.99205   321.76767
         235           3           3   196.55124   367.71371
         235           3           4   178.56047   334.05606
         235           3           5   158.17637   295.92089
         235           4           1   180.42036   337.53558
         235           4           2   175.38799   328.12088
         235           4           3   200.70095   375.47710
         235           4           4   176.88550   330.92248
         235           4           5   154.97669   289.93484
         235           5           1   179.19544   335.24397
         235           5           2   175.15142   327.67831
         235           5           3   202.76775   379.34373
         235           5           4   177.26525   331.63291
         235           5           5   158.21169   295.98697
         236           1           1   179.19544   335.24397
         236           1           2   175.15142   327.67831
         236           1           3   202.76775   379.34373
         236           1           4   177.26525   331.63291
         236           1           5   158.21169   295.98697
         236           2           1   177.60523   332.26896
         236           2           2   175.04961   327.48784
         236           2           3   205.56797   384.58246
         236           2           4   177.65203   332.35651
         236           2           5   161.47410   302.09038
         236           3           1   176.87793   330.90831
         236           3           2   176.58277   330.35611
         236           3           3   208.69585   390.43419
         236           3           4   180.88395   338.40289
         236           3           5   168.20674   314.68599
         236           4           1   178.09902   333.19277
         236           4           2   181.32372   339.22563
         236           4           3   210.69749   394.17891
         236           4           4   187.54822   350.87059
         236           4           5   175.46788   328.27035
         236           5           1   177.41057   331.90478
         236           5           2   183.45142   343.20617
         236           5           3   212.70529   397.93516
         236           5           4   192.69872   360.50630
         236           5           5   179.61857   336.03557
         237           1           1   177.41057   331.90478
         237           1           2   183.45142   343.20617
         237           1           3   212.70529   397.93516
         237           1           4   192.69872   360.50630
         237           1           5   179.61857   336.03557
         237           2           1   176.63094   330.44623
         237           2           2   185.55357   347.13894
         237           2           3   214.77821   401.81324
         237           2           4   197.75412   369.96408
         237           2           5   183.79116   343.84178
         237           3           1   175.98733   329.24215
         237           3           2   187.86746   351.46783
         237           3           3   220.92332   413.30969
         237           3           4   207.79673   388.75208
         237           3           5   193.20554   361.45447
         237           4           1   174.87395   327.15920
         237           4           2   192.80931   360.71318
         237           4           3   229.78038   429.87974
         237           4           4   214.82075   401.89283
         237           4           5   204.26097   382.13729
         237           5           1   175.56310   328.44848
         237           5           2   194.57869   364.02340
         237           5           3   231.69207   433.45617
         237           5           4   219.08091   409.86286
         237           5           5   210.90210   394.56170
         238           1           1   175.56310   328.44848
         238           1           2   194.57869   364.02340
         238           1           3   231.69207   433.45617
         238           1           4   219.08091   409.86286
         238           1           5   210.90210   394.56170
         238           2           1   176.43050   330.07125
         238           2           2   196.23111   367.11480
         238           2           3   233.21825   436.31139
         238           2           4   223.41855   417.97783
         238           2           5   217.65622   407.19749
         238           3           1   176.03161   329.32499
         238           3           2   197.26068   369.04094
         238           3           3   236.52649   442.50054
         238           3           4   232.60224   435.15895
         238           3           5   230.33283   430.91326
         238           4           1   172.40919   322.54806
         238           4           2   198.58990   371.52769
         238           4           3   237.58698   444.48455
         238           4           4   243.07965   454.76038
         238           4           5   242.85287   454.33612
         238           5           1   172.20449   322.16509
         238           5           2   198.78479   371.89230
         238           5           3   240.32542   449.60769
         238           5           4   249.01479   465.86401
         238           5           5   248.72290   465.31794
         239           1           1   172.20449   322.16509
         239           1           2   198.78479   371.89230
         239           1           3   240.32542   449.60769
         239           1           4   249.01479   465.86401
         239           1           5   248.72290   465.31794
         239           2           1   172.66955   323.03514
         239           2           2   199.79892   373.78956
         239           2           3   243.54551   455.63193
         239           2           4   254.57845   476.27266
         239           2           5   254.43055   475.99597
         239           3           1   172.98582   323.62684
         239           3           2   201.72446   377.39190
         239           3           3   248.76912   465.40441
         239           3           4   263.43492   492.84161
         239           3           5   261.76758   489.72230
         239           4           1   172.55883   322.82802
         239           4           2   203.54148   380.79125
         239           4           3   252.41353   472.22247
         239           4           4   270.97735   506.95221
         239           4           5   264.22754   494.32447
         239           5           1   175.74256   328.78422
         239           5           2   202.72982   379.27277
         239           5           3   250.71315   469.04135
         239           5           4   273.83849   512.30491
         239           5           5   264.06882   494.02752
         240           1           1   175.74256   328.78422
         240           1           2   202.72982   379.27277
         240           1           3   250.71315   469.04135
         240           1           4   273.83849   512.30491
         240           1           5   264.06882   494.02752
         240           2           1   179.72028   336.22586
         240           2           2   201.45371   376.88538
         240           2           3   247.87166   463.72541
         240           2           4   275.99272   516.33509
         240           2           5   263.45136   492.87237
         240           3           1   187.17815   350.17826
         240           3           2   202.86098   379.51814
         240           3           3   243.12639   454.84782
         240           3           4   277.83376   519.77936
         240           3           5   263.93960   493.78577
         240           4           1   199.25472   372.77144
         240           4           2   201.83659   377.60169
         240           4           3   236.87941   443.16080
         240           4           4   277.72980   519.58488
         240           4           5   267.06921   499.64073
         240           5           1   202.53798   378.91386
         240           5           2   203.28304   380.30775
         240           5           3   235.77472   441.09411
         240           5           4   277.91591   519.93306
         240           5           5   269.18731   503.60335
         241           1           1   202.53798   378.91386
         241           1           2   203.28304   380.30775
         241           1           3   235.77472   441.09411
         241           1           4   277.91591   519.93306
         241           1           5   269.18731   503.60335
         241           2           1   204.63481   382.83668
         241           2           2   205.57301   384.59189
         241           2           3   235.60011   440.76745
         241           2           4   276.84204   517.92403
         241           2           5   271.50375   507.93701
         241           3           1   208.41989   389.91791
         241           3           2   210.50573   393.82017
         241           3           3   236.56041   442.56400
         241           3           4   275.43069   515.28363
         241           3           5   274.51952   513.57899
         241           4           1   211.86000   396.35377
         241           4           2   216.40880   404.86379
         241           4           3   240.96567   450.80549
         241           4           4   275.54873   515.50447
         241           4           5   275.03503   514.54343
         241           5           1   215.92112   403.95142
         241           5           2   218.91202   409.54688
         241           5           3   241.90710   452.56674
         241           5           4   272.72087   510.21402
         241           5           5   275.65571   515.70462
         242           1           1   215.92112   403.95142
         242           1           2   218.91202   409.54688
         242           1           3   241.90710   452.56674
         242           1           4   272.72087   510.21402
         242           1           5   275.65571   515.70462
         242           2           1   221.19563   413.81912
         242           2           2   221.07682   413.59685
         242           2           3   242.08256   452.89500
         242           2           4   268.65177   502.60143
         242           2           5   276.46961   517.22728
         242           3           1   229.69621   429.72226
         242           3           2   225.68372   422.21559
         242           3           3   241.91638   452.58410
         242           3           4   263.17280   492.35122
         242           3           5   278.98576   521.93456
         242           4           1   235.07161   439.77871
         242           4           2   229.45001   429.26167
         242           4           3   241.60003   451.99227
         242           4           4   256.97249   480.75150
         242           4           5   283.53238   530.44050
         242           5           1   237.57838   444.46846
         242           5           2   233.35844   436.57367
         242           5           3   241.04073   450.94592
         242           5           4   255.56546   478.11920
         242           5           5   286.60579   536.19034
         243           1           1   237.57838   444.46846
         243           1           2   233.35844   436.57367
         243           1           3   241.04073   450.94592
         243           1           4   255.56546   478.11920
         243           1           5   286.60579   536.19034
         243           2           1   239.03888   447.20079
         243           2           2   235.65673   440.87337
         243           2           3   240.20304   449.37873
         243           2           4   253.87801   474.96226
         243           2           5   290.15807   542.83604
         243           3           1   243.23772   455.05611
         243           3           2   239.62712   448.30129
         243           3           3   238.66165   446.49506
         243           3           4   250.91556   469.42003
         243           3           5   295.40549   552.65306
         243           4           1   251.54870   470.60453
         243           4           2   246.90903   461.92450
         243           4           3   237.41221   444.15758
         243           4           4   250.04068   467.78329
         243           4           5   297.06898   555.76516
         243           5           1   254.52063   476.16450
         243           5           2   250.10642   467.90627
         243           5           3   236.38627   442.23821
         243           5           4   250.43284   468.51694
         243           5           5   297.04763   555.72524
         244           1           1   254.52063   476.16450
         244           1           2   250.10642   467.90627
         244           1           3   236.38627   442.23821
         244           1           4   250.43284   468.51694
         244           1           5   297.04763   555.72524
         244           2           1   256.22231   479.34805
         244           2           2   252.72293   472.80132
         244           2           3   235.18278   439.98668
         244           2           4   253.15996   473.61892
         244           2           5   296.21784   554.17283
         244           3           1   259.03566   484.61135
         244           3           2   255.88964   478.72569
         244           3           3   234.48052   438.67289
         244           3           4   258.84293   484.25078
         244           3           5   295.14808   552.17150
         244           4           1   262.31861   490.75318
         244           4           2   255.27979   477.58475
         244           4           3   238.21943   445.66775
         244           4           4   261.98398   490.12715
         244           4           5   295.49364   552.81798
         244           5           1   264.15504   494.18882
         244           5           2   254.35386   475.85250
         244           5           3   240.42655   449.79688
         244           5           4   262.22333   490.57493
         244           5           5   294.91801   551.74108
         245           1           1   264.15504   494.18882
         245           1           2   254.35386   475.85250
         245           1           3   240.42655   449.79688
         245           1           4   262.22333   490.57493
         245           1           5   294.91801   551.74108
         245           2           1   265.40855   496.53393
         245           2           2   252.83548   473.01187
         245           2           3   243.94303   456.37562
         245           2           4   261.52760   489.27333
         245           2           5   293.48076   549.05222
         245           3           1   267.03471   499.57621
         245           3           2   251.37683   470.28300
         245           3           3   250.06967   467.83751
         245           3           4   261.94165   490.04796
         245           3           5   290.81918   544.07287
         245           4           1   266.17019   497.95883
         245           4           2   245.25414   458.82849
         245           4           3   255.48293   477.96480
         245           4           4   263.08869   492.19387
         245           4           5   288.36667   539.48464
         245           5           1   265.10252   495.96141
         245           5           2   242.93765   454.49472
         245           5           3   257.99039   482.65583
         245           5           4   263.50121   492.96562
         245           5           5   287.96955   538.74170
         246           1           1   265.10252   495.96141
         246           1           2   242.93765   454.49472
         246           1           3   257.99039   482.65583
         246           1           4   263.50121   492.96562
         246           1           5   287.96955   538.74170
         246           2           1   264.43310   494.70903
         246           2           2   241.12125   451.09656
         246           2           3   260.33681   487.04557
         246           2           4   265.11371   495.98233
         246           2           5   288.86549   540.41785
         246           3           1   262.31517   490.74674
         246           3           2   237.98684   445.23260
         246           3           3   264.46167   494.76247
         246           3           4   269.20834   503.64268
         246           3           5   290.46608   543.41228
         246           4           1   262.20535   490.54129
         246           4           2   235.40349   440.39960
         246           4           3   267.29876   500.07019
         246           4           4   271.62428   508.16250
         246           4           5   291.67697   545.67765
         246           5           1   263.16740   492.34113
         246           5           2   235.02838   439.69784
         246           5           3   268.67505   502.64499
         246           5           4   273.20179   511.11375
         246           5           5   292.17380   546.60713
         247           1           1   263.16740   492.34113
         247           1           2   235.02838   439.69784
         247           1           3   268.67505   502.64499
         247           1           4   273.20179   511.11375
         247           1           5   292.17380   546.60713
         247           2           1   266.01553   497.66948
         247           2           2   237.63379   444.57211
         247           2           3   268.97496   503.20607
         247           2           4   276.74596   517.74428
         247           2           5   292.40816   547.04558
         247           3           1   270.85715   506.72733
         247           3           2   241.83315   452.42840
         247           3           3   269.27243   503.76258
         247           3           4   282.52498   528.55585
         247           3           5   293.94156   549.91431
         247           4           1   270.01220   505.14656
         247           4           2   248.12301   464.19564
         247           4           3   268.24396   501.83849
         247           4           4   282.84822   529.16056
         247           4           5   300.80286   562.75063
         247           5           1   269.10632   503.45182
         247           5           2   251.09561   469.75687
         247           5           3   268.40997   502.14907
         247           5           4   283.08034   529.59482
         247           5           5   303.72452   568.21654
         248           1           1   269.10632   503.45182
         248           1           2   251.09561   469.75687
         248           1           3   268.40997   502.14907
         248           1           4   283.08034   529.59482
         248           1           5   303.72452   568.21654
         248           2           1   267.08739   499.67476
         248           2           2   253.17972   473.65589
         248           2           3   268.82134   502.91867
         248           2           4   284.06869   531.44386
         248           2           5   304.95811   570.52439
         248           3           1   265.00612   495.78106
         248           3           2   256.32281   479.53607
         248           3           3   269.35515   503.91735
         248           3           4   285.32714   533.79820
         248           3           5   307.15037   574.62573
         248           4           1   265.65414   496.99339
         248           4           2   258.81759   484.20337
         248           4           3   266.87820   499.28340
         248           4           4   286.55462   536.09461
         248           4           5   308.43601   577.03094
         248           5           1   265.92370   497.49769
         248           5           2   259.63550   485.73355
         248           5           3   265.44932   496.61021
         248           5           4   289.65714   541.89888
         248           5           5   309.19929   578.45889
         249           1           1   265.92370   497.49769
         249           1           2   259.63550   485.73355
         249           1           3   265.44932   496.61021
         249           1           4   289.65714   541.89888
         249           1           5   309.19929   578.45889
         249           2           1   266.00072   497.64177
         249           2           2   258.75382   484.08407
         249           2           3   264.03195   493.95855
         249           2           4   288.41186   539.56917
         249           2           5   310.24104   580.40784
         249           3           1   266.04412   497.72298
         249           3           2   257.63481   481.99059
         249           3           3   261.53956   489.29571
         249           3           4   288.00544   538.80883
         249           3           5   312.29453   584.24957
         249           4           1   264.17298   494.22239
         249           4           2   256.75139   480.33786
         249           4           3   260.65294   487.63700
         249           4           4   288.86218   540.41166
         249           4           5   314.99797   589.30724
         249           5           1   263.12577   492.26324
         249           5           2   256.54984   479.96080
         249           5           3   259.95084   486.32349
         249           5           4   288.77819   540.25453
         249           5           5   316.65775   592.41241
         250           1           1   263.12577   492.26324
         250           1           2   256.54984   479.96080
         250           1           3   259.95084   486.32349
         250           1           4   288.77819   540.25453
         250           1           5   316.65775   592.41241
         250           2           1   263.26123   492.51667
         250           2           2   256.08791   479.09661
         250           2           3   259.18417   484.88919
         250           2           4   292.23304   546.71797
         250           2           5   319.41529   597.57128
         250           3           1   263.92132   493.75158
         250           3           2   256.49002   479.84888
         250           3           3   257.76778   482.23935
         250           3           4   296.91104   555.46969
         250           3           5   324.51278   607.10782
         250           4           1   263.44996   492.86975
         250           4           2   256.51377   479.89331
         250           4           3   254.66525   476.43505
         250           4           4   300.59887   562.36899
         250           4           5   328.05750   613.73938
         250           5           1   263.17269   492.35103
         250           5           2   256.37267   479.62935
         250           5           3   253.33951   473.95482
         250           5           4   302.32868   565.60518
         250           5           5   329.79109   616.98263
         251           1           1   263.17269   492.35103
         251           1           2   256.37267   479.62935
         251           1           3   253.33951   473.95482
         251           1           4   302.32868   565.60518
         251           1           5   329.79109   616.98263
         251           2           1   262.97341   491.97821
         251           2           2   256.12086   479.15826
         251           2           3   255.09283   477.23499
         251           2           4   300.89119   562.91587
         251           2           5   330.49571   618.30085
         251           3           1   263.08128   492.18002
         251           3           2   256.56268   479.98482
         251           3           3   258.53665   483.67779
         251           3           4   301.03012   563.17579
         251           3           5   331.90205   620.93188
         251           4           1   266.73994   499.02474
         251           4           2   253.69852   474.62648
         251           4           3   263.59397   493.13915
         251           4           4   301.43794   563.93875
         251           4           5   334.76393   626.28596
         251           5           1   267.57300   500.58324
         251           5           2   252.25255   471.92132
         251           5           3   266.34350   498.28307
         251           5           4   302.31304   565.57591
         251           5           5   336.32677   629.20978
         252           1           1   267.57300   500.58324
         252           1           2   252.25255   471.92132
         252           1           3   266.34350   498.28307
         252           1           4   302.31304   565.57591
         252           1           5   336.32677   629.20978
         252           2           1   267.43168   500.31885
         252           2           2   250.85418   469.30519
         252           2           3   265.62741   496.94338
         252           2           4   304.41755   569.51308
         252           2           5   338.74482   633.73352
         252           3           1   267.19139   499.86932
         252           3           2   248.93854   465.72137
         252           3           3   263.69040   493.31956
         252           3           4   308.46914   577.09292
         252           3           5   343.31733   642.28792
         252           4           1   265.95841   497.56262
         252           4           2   248.17299   464.28916
         252           4           3   262.32331   490.76198
         252           4           4   315.08586   589.47167
         252           4           5   347.17327   649.50172
         252           5           1   264.89258   495.56865
         252           5           2   246.86975   461.85102
         252           5           3   261.65928   489.51969
         252           5           4   318.27485   595.43772
         252           5           5   349.20738   653.30718
         253           1           1   267.27741   500.03024
         253           1           2   257.73234   482.17306
         253           1           3   161.94562   302.97250
         253           1           4   171.44730   320.74852
         253           1           5   193.87728   362.71118
         253           2           1   265.10270   495.96174
         253           2           2   257.79781   482.29555
         253           2           3   164.56109   307.86560
         253           2           4   174.79617   327.01370
         253           2           5   195.51686   365.77855
         253           3           1   263.59210   493.13567
         253           3           2   253.34075   473.95715
         253           3           3   163.93789   306.69971
         253           3           4   181.66668   339.86723
         253           3           5   194.87020   364.56876
         253           4           1   262.51999   491.12993
         253           4           2   249.35981   466.50949
         253           4           3   163.01502   304.97318
         253           4           4   187.52573   350.82851
         253           4           5   192.32886   359.81436
         253           5           1   261.40416   489.04240
         253           5           2   249.19994   466.21040
         253           5           3   162.84862   304.66187
         253           5           4   190.52671   356.44283
         253           5           5   189.51549   354.55102
         254           1           1   276.32465   516.95609
         254           1           2   257.92953   482.54196
         254           1           3   142.94155   267.41915
         254           1           4   157.39329   294.45589
         254           1           5   173.56552   324.71135
         254           2           1   274.98327   514.44658
         254           2           2   257.84466   482.38319
         254           2           3   144.89823   271.07976
         254           2           4   159.19476   297.82612
         254           2           5   177.51473   332.09966
         254           3           1   272.67784   510.13353
         254           3           2   257.36599   481.48767
         254           3           3   152.38288   285.08227
         254           3           4   164.62949   307.99358
         254           3           5   185.59981   347.22545
         254           4           1   269.45211   504.09874
         254           4           2   257.44468   481.63489
         254           4           3   159.33015   298.07941
         254           4           4   169.44539   317.00329
         254           4           5   192.23771   359.64382
         254           5           1   267.27741   500.03024
         254           5           2   257.73234   482.17306
         254           5           3   161.94562   302.97250
         254           5           4   171.44730   320.74852
         254           5           5   193.87728   362.71118
         255           1           1   288.92967   540.53792
         255           1           2   262.62640   491.32900
         255           1           3   148.01641   276.91335
         255           1           4   138.44069   258.99882
         255           1           5   153.24679   286.69849
         255           2           1   285.68996   534.47698
         255           2           2   259.57596   485.62215
         255           2           3   145.66989   272.52341
         255           2           4   141.41540   264.56398
         255           2           5   155.39137   290.71063
         255           3           1   281.65791   526.93369
         255           3           2   258.21597   483.07784
         255           3           3   141.95072   265.56547
         255           3           4   146.84149   274.71528
         255           3           5   162.27422   303.58727
         255           4           1   277.66839   519.46999
         255           4           2   257.70489   482.12170
         255           4           3   140.98487   263.75854
         255           4           4   153.35148   286.89435
         255           4           5   169.61631   317.32305
         255           5           1   276.32465   516.95609
         255           5           2   257.92953   482.54196
         255           5           3   142.94155   267.41915
         255           5           4   157.39329   294.45589
         255           5           5   173.56552   324.71135
         256           1           1   293.96949   549.96656
         256           1           2   266.42772   498.44062
         256           1           3   153.61347   287.38449
         256           1           4   133.78515   250.28910
         256           1           5   150.01365   280.64984
         256           2           1   295.00248   551.89911
         256           2           2   269.45501   504.10416
         256           2           3   152.95134   286.14575
         256           2           4   132.28085   247.47481
         256           2           5   148.03569   276.94942
         256           3           1   294.59272   551.13251
         256           3           2   268.71016   502.71068
         256           3           3   152.50308   285.30714
         256           3           4   132.79467   248.43607
         256           3           5   148.82590   278.42776
         256           4           1   292.26643   546.78043
         256           4           2   266.27914   498.16266
         256           4           3   150.36293   281.30328
         256           4           4   135.86111   254.17285
         256           4           5   151.10221   282.68634
         256           5           1   288.92967   540.53792
         256           5           2   262.62640   491.32900
         256           5           3   148.01641   276.91335
         256           5           4   138.44069   258.99882
         256           5           5   153.24679   286.69849
         257           1           1   290.51696   543.50747
         257           1           2   266.39335   498.37633
         257           1           3   168.23678   314.74219
         257           1           4   141.58061   264.87308
         257           1           5   159.68797   298.74883
         257           2           1   291.63058   545.59086
         257           2           2   264.31390   494.48602
         257           2           3   164.07677   306.95952
         257           2           4   139.72861   261.40828
         257           2           5   159.80245   298.96301
         257           3           1   291.64114   545.61061
         257           3           2   262.77911   491.61470
         257           3           3   158.31321   296.17689
         257           3           4   136.89226   256.10198
         257           3           5   155.95369   291.76263
         257           4           1   292.93651   548.03402
         257           4           2   263.40043   492.77709
         257           4           3   154.27561   288.62324
         257           4           4   135.16628   252.87296
         257           4           5   151.99161   284.35027
         257           5           1   293.96949   549.96656
         257           5           2   266.42772   498.44062
         257           5           3   153.61347   287.38449
         257           5           4   133.78515   250.28910
         257           5           5   150.01365   280.64984
         258           1           1   289.02271   540.71198
         258           1           2   271.65290   508.21604
         258           1           3   194.57976   364.02540
         258           1           4   159.49289   298.38387
         258           1           5   168.39094   315.03060
         258           2           1   287.53968   537.93749
         258           2           2   271.45987   507.85491
         258           2           3   191.02412   357.37341
         258           2           4   155.44818   290.81692
         258           2           5   165.35703   309.35467
         258           3           1   287.40922   537.69341
         258           3           2   271.00489   507.00372
         258           3           3   181.25197   339.09138
         258           3           4   149.16443   279.06110
         258           3           5   161.59527   302.31708
         258           4           1   288.73840   540.18008
         258           4           2   268.62156   502.54493
         258           4           3   172.39679   322.52486
         258           4           4   143.77927   268.98638
         258           4           5   159.57348   298.53465
         258           5           1   290.51696   543.50747
         258           5           2   266.39335   498.37633
         258           5           3   168.23678   314.74219
         258           5           4   141.58061   264.87308
         258           5           5   159.68797   298.74883
         259           1           1   307.42900   575.14700
         259           1           2   281.65148   526.92167
         259           1           3   219.91898   411.43073
         259           1           4   189.14273   353.85365
         259           1           5   189.41889   354.37030
         259           2           1   304.21506   569.13426
         259           2           2   278.28237   520.61865
         259           2           3   213.13945   398.74741
         259           2           4   182.01383   340.51669
         259           2           5   184.11472   344.44710
         259           3           1   295.68974   553.18486
         259           3           2   275.17115   514.79808
         259           3           3   205.73621   384.89721
         259           3           4   172.89565   323.45815
         259           3           5   177.59245   332.24505
         259           4           1   290.50574   543.48648
         259           4           2   272.06282   508.98292
         259           4           3   198.13541   370.67740
         259           4           4   163.71335   306.27964
         259           4           5   171.42485   320.70652
         259           5           1   289.02271   540.71198
         259           5           2   271.65290   508.21604
         259           5           3   194.57976   364.02540
         259           5           4   159.49289   298.38387
         259           5           5   168.39094   315.03060
         260           1           1   311.07346   581.96515
         260           1           2   303.03540   566.92733
         260           1           3   252.56508   472.50600
         260           1           4   221.83908   415.02292
         260           1           5   225.95811   422.72891
         260           2           1   311.92742   583.56276
         260           2           2   299.59560   560.49204
         260           2           3   247.80898   463.60815
         260           2           4   216.80537   405.60571
         260           2           5   220.05192   411.67945
         260           3           1   312.86084   585.30903
         260           3           2   292.31671   546.87449
         260           3           3   238.33743   445.88850
         260           3           4   206.18170   385.73064
         260           3           5   206.55205   386.42350
         260           4           1   310.63580   581.14637
         260           4           2   284.95969   533.11076
         260           4           3   226.86185   424.41967
         260           4           4   196.28454   367.21476
         260           4           5   194.73344   364.31291
         260           5           1   307.42900   575.14700
         260           5           2   281.65148   526.92167
         260           5           3   219.91898   411.43073
         260           5           4   189.14273   353.85365
         260           5           5   189.41889   354.37030
         261           1           1   310.72667   581.31638
         261           1           2   322.66125   603.64392
         261           1           3   277.09789   518.40269
         261           1           4   245.21628   458.75765
         261           1           5   257.84237   482.37890
         261           2           1   309.93307   579.83168
         261           2           2   321.83949   602.10655
         261           2           3   272.50319   509.80679
         261           2           4   241.35655   451.53676
         261           2           5   254.30233   475.75609
         261           3           1   307.72950   575.70917
         261           3           2   316.96139   592.98046
         261           3           3   265.35287   496.42976
         261           3           4   234.19929   438.14675
         261           3           5   242.96333   454.54278
         261           4           1   308.61685   577.36926
         261           4           2   308.79182   577.69659
         261           4           3   257.27628   481.31985
         261           4           4   226.83376   424.36710
         261           4           5   231.78115   433.62282
         261           5           1   311.07346   581.96515
         261           5           2   303.03540   566.92733
         261           5           3   252.56508   472.50600
         261           5           4   221.83908   415.02292
         261           5           5   225.95811   422.72891
         262           1           1   302.81443   566.51392
         262           1           2   317.22055   593.46530
         262           1           3   297.17342   555.96056
         262           1           4   262.77910   491.61469
         262           1           5   267.61679   500.66517
         262           2           1   304.56874   569.79594
         262           2           2   318.79847   596.41732
         262           2           3   294.59377   551.13448
         262           2           4   262.65922   491.39040
         262           2           5   266.74727   499.03844
         262           3           1   309.45529   578.93783
         262           3           2   319.86403   598.41080
         262           3           3   289.05413   540.77077
         262           3           4   257.27472   481.31692
         262           3           5   265.12027   495.99461
         262           4           1   311.27051   582.33380
         262           4           2   322.26113   602.89536
         262           4           3   281.77644   527.15545
         262           4           4   249.08776   466.00052
         262           4           5   261.04146   488.36385
         262           5           1   310.72667   581.31638
         262           5           2   322.66125   603.64392
         262           5           3   277.09789   518.40269
         262           5           4   245.21628   458.75765
         262           5           5   257.84237   482.37890
         263           1           1   290.39738   543.28376
         263           1           2   306.18653   572.82254
         263           1           3   305.34046   571.23970
         263           1           4   266.14077   497.90379
         263           1           5   281.78449   527.17051
         263           2           1   295.84511   553.47553
         263           2           2   310.23132   580.38965
         263           2           3   304.92815   570.46834
         263           2           4   264.54530   494.91894
         263           2           5   278.29155   520.63582
         263           3           1   299.43508   560.19174
         263           3           2   315.55485   590.34907
         263           3           3   303.19986   567.23500
         263           3           4   264.06632   494.02285
         263           3           5   272.05240   508.96343
         263           4           1   301.91185   564.82534
         263           4           2   317.49522   593.97916
         263           4           3   299.69319   560.67461
         263           4           4   262.29746   490.71362
         263           4           5   268.48880   502.29655
         263           5           1   302.81443   566.51392
         263           5           2   317.22055   593.46530
         263           5           3   297.17342   555.96056
         263           5           4   262.77910   491.61469
         263           5           5   267.61679   500.66517
         264           1           1   261.59319   489.39605
         264           1           2   279.01033   521.98052
         264           1           3   306.11612   572.69081
         264           1           4   278.28710   520.62750
         264           1           5   283.96861   531.25662
         264           2           1   265.75137   497.17530
         264           2           2   283.11483   529.65936
         264           2           3   304.99920   570.60126
         264           2           4   277.16407   518.52649
         264           2           5   286.31986   535.65541
         264           3           1   273.78727   512.20908
         264           3           2   292.29240   546.82901
         264           3           3   304.23490   569.17138
         264           3           4   272.23830   509.31122
         264           3           5   288.60187   539.92465
         264           4           1   284.06612   531.43904
         264           4           2   301.70009   564.42918
         264           4           3   304.69346   570.02927
         264           4           4   268.17049   501.70105
         264           4           5   285.34093   533.82400
         264           5           1   290.39738   543.28376
         264           5           2   306.18653   572.82254
         264           5           3   305.34046   571.23970
         264           5           4   266.14077   497.90379
         264           5           5   281.78449   527.17051
         265           1           1   253.49265   474.24132
         265           1           2   261.97043   490.10180
         265           1           3   314.89152   589.10809
         265           1           4   284.75888   532.73508
         265           1           5   277.49669   519.14878
         265           2           1   252.94386   473.21462
         265           2           2   262.58002   491.24224
         265           2           3   313.46919   586.44715
         265           2           4   280.59753   524.94992
         265           2           5   276.69834   517.65519
         265           3           1   252.43048   472.25418
         265           3           2   266.99216   499.49659
         265           3           3   310.77563   581.40796
         265           3           4   277.70494   519.53837
         265           3           5   277.40744   518.98180
         265           4           1   257.78013   482.26246
         265           4           2   274.47451   513.49479
         265           4           3   307.78222   575.80782
         265           4           4   278.17681   520.42116
         265           4           5   281.13021   525.94647
         265           5           1   261.59319   489.39605
         265           5           2   279.01033   521.98052
         265           5           3   306.11612   572.69081
         265           5           4   278.28710   520.62750
         265           5           5   283.96861   531.25662
         266           1           1   257.15514   481.09322
         266           1           2   260.89865   488.09667
         266           1           3   315.13812   589.56944
         266           1           4   300.00745   561.26254
         266           1           5   282.70392   528.89061
         266           2           1   256.48444   479.83845
         266           2           2   260.21008   486.80849
         266           2           3   317.25712   593.53372
         266           2           4   298.64049   558.70519
         266           2           5   282.48659   528.48403
         266           3           1   255.93407   478.80880
         266           3           2   261.87263   489.91883
         266           3           3   317.84318   594.63014
         266           3           4   295.67597   553.15909
         266           3           5   281.21280   526.10098
         266           4           1   254.48462   476.09712
         266           4           2   262.22501   490.57808
         266           4           3   316.48194   592.08349
         266           4           4   290.28294   543.06965
         266           4           5   278.94464   521.85764
         266           5           1   253.49265   474.24132
         266           5           2   261.97043   490.10180
         266           5           3   314.89152   589.10809
         266           5           4   284.75888   532.73508
         266           5           5   277.49669   519.14878
         267           1           1   255.75580   478.47530
         267           1           2   256.68339   480.21065
         267           1           3   294.90428   551.71540
         267           1           4   305.27731   571.12156
         267           1           5   283.23199   529.87854
         267           2           1   256.63163   480.11382
         267           2           2   256.96252   480.73286
         267           2           3   295.75250   553.30226
         267           2           4   304.27349   569.24357
         267           2           5   282.99904   529.44272
         267           3           1   257.05389   480.90379
         267           3           2   260.00532   486.42541
         267           3           3   303.93117   568.60316
         267           3           4   303.70447   568.17903
         267           3           5   282.58045   528.65961
         267           4           1   257.27588   481.31910
         267           4           2   260.70647   487.73714
         267           4           3   311.37333   582.52617
         267           4           4   301.67045   564.37374
         267           4           5   282.59871   528.69378
         267           5           1   257.15514   481.09322
         267           5           2   260.89865   488.09667
         267           5           3   315.13812   589.56944
         267           5           4   300.00745   561.26254
         267           5           5   282.70392   528.89061
         268           1           1   254.03656   475.25889
         268           1           2   261.19791   488.65654
         268           1           3   292.46949   547.16031
         268           1           4   310.13361   580.20685
         268           1           5   292.15742   546.57648
         268           2           1   252.78731   472.92175
         268           2           2   259.50430   485.48808
         268           2           3   292.50299   547.22299
         268           2           4   308.44390   577.04570
         268           2           5   289.86313   542.28426
         268           3           1   252.26295   471.94077
         268           3           2   257.77012   482.24373
         268           3           3   293.52613   549.13711
         268           3           4   305.83515   572.16517
         268           3           5   285.07330   533.32330
         268           4           1   254.29260   475.73790
         268           4           2   257.59738   481.92056
         268           4           3   294.44157   550.84974
         268           4           4   305.68685   571.88773
         268           4           5   283.47587   530.33479
         268           5           1   255.75580   478.47530
         268           5           2   256.68339   480.21065
         268           5           3   294.90428   551.71540
         268           5           4   305.27731   571.12156
         268           5           5   283.23199   529.87854
         269           1           1   265.25878   496.25374
         269           1           2   264.72662   495.25816
         269           1           3   294.40811   550.78714
         269           1           4   313.76785   587.00589
         269           1           5   302.13231   565.23780
         269           2           1   262.63818   491.35104
         269           2           2   262.13856   490.41634
         269           2           3   293.81443   549.67646
         269           2           4   312.76073   585.12175
         269           2           5   300.56584   562.30720
         269           3           1   257.73537   482.17873
         269           3           2   258.31933   483.27121
         269           3           3   291.07268   544.54711
         269           3           4   312.48821   584.61191
         269           3           5   297.78790   557.11015
         269           4           1   255.11949   477.28486
         269           4           2   259.80648   486.05341
         269           4           3   291.64269   545.61351
         269           4           4   312.01378   583.72433
         269           4           5   294.18743   550.37428
         269           5           1   254.03656   475.25889
         269           5           2   261.19791   488.65654
         269           5           3   292.46949   547.16031
         269           5           4   310.13361   580.20685
         269           5           5   292.15742   546.57648
         270           1           1   281.89251   527.37259
         270           1           2   282.60463   528.70485
         270           1           3   286.24697   535.51905
         270           1           4   311.86503   583.44605
         270           1           5   316.68714   592.46738
         270           2           1   279.33159   522.58155
         270           2           2   280.09979   524.01873
         270           2           3   288.75981   540.22014
         270           2           4   311.29015   582.37055
         270           2           5   314.25685   587.92072
         270           3           1   273.38495   511.45642
         270           3           2   274.42755   513.40694
         270           3           3   294.24296   550.47817
         270           3           4   313.55271   586.60342
         270           3           5   307.74527   575.73867
         270           4           1   267.92877   501.24884
         270           4           2   268.16469   501.69020
         270           4           3   294.88612   551.68141
         270           4           4   314.30975   588.01970
         270           4           5   303.84449   568.44100
         270           5           1   265.25878   496.25374
         270           5           2   264.72662   495.25816
         270           5           3   294.40811   550.78714
         270           5           4   313.76785   587.00589
         270           5           5   302.13231   565.23780
         271           1           1   284.91898   533.03461
         271           1           2   289.22015   541.08135
         271           1           3   280.39273   524.56676
         271           1           4   318.45411   595.77308
         271           1           5   325.51379   608.98053
         271           2           1   284.41886   532.09896
         271           2           2   289.39410   541.40679
         271           2           3   280.81518   525.35709
         271           2           4   315.05754   589.41869
         271           2           5   322.77339   603.85371
         271           3           1   283.86286   531.05879
         271           3           2   287.66248   538.16722
         271           3           3   281.84226   527.27858
         271           3           4   312.74119   585.08519
         271           3           5   318.82984   596.47601
         271           4           1   282.38424   528.29254
         271           4           2   284.17268   531.63840
         271           4           3   284.64638   532.52461
         271           4           4   312.22361   584.11688
         271           4           5   317.25957   593.53830
         271           5           1   281.89251   527.37259
         271           5           2   282.60463   528.70485
         271           5           3   286.24697   535.51905
         271           5           4   311.86503   583.44605
         271           5           5   316.68714   592.46738
         272           1           1   287.98593   538.77234
         272           1           2   275.28234   515.00610
         272           1           3   288.95679   540.58865
         272           1           4   330.12281   617.60322
         272           1           5   337.42035   631.25567
         272           2           1   288.15988   539.09777
         272           2           2   277.83335   519.77860
         272           2           3   286.27048   535.56303
         272           2           4   329.37122   616.19713
         272           2           5   337.19955   630.84259
         272           3           1   286.85489   536.65636
         272           3           2   284.19200   531.67455
         272           3           3   280.54167   524.84540
         272           3           4   327.11613   611.97825
         272           3           5   336.96352   630.40103
         272           4           1   285.91940   534.90622
         272           4           2   286.91912   536.77652
         272           4           3   280.25902   524.31661
         272           4           4   321.40123   601.28664
         272           4           5   329.85087   617.09448
         272           5           1   284.91898   533.03461
         272           5           2   289.22015   541.08135
         272           5           3   280.39273   524.56676
         272           5           4   318.45411   595.77308
         272           5           5   325.51379   608.98053
         273           1           1   278.68079   521.36402
         273           1           2   276.12496   516.58250
         273           1           3   311.15719   582.12181
         273           1           4   333.70871   624.31183
         273           1           5   345.53340   646.43379
         273           2           1   279.66627   523.20768
         273           2           2   275.10304   514.67066
         273           2           3   308.10208   576.40622
         273           2           4   332.53402   622.11418
         273           2           5   343.38887   642.42175
         273           3           1   282.28411   528.10521
         273           3           2   274.51889   513.57781
         273           3           3   301.71738   564.46153
         273           3           4   331.38946   619.97292
         273           3           5   339.30397   634.77960
         273           4           1   286.07597   535.19913
         273           4           2   276.07002   516.47971
         273           4           3   293.55557   549.19218
         273           4           4   330.64545   618.58099
         273           4           5   337.95639   632.25850
         273           5           1   287.98593   538.77234
         273           5           2   275.28234   515.00610
         273           5           3   288.95679   540.58865
         273           5           4   330.12281   617.60322
         273           5           5   337.42035   631.25567
         274           1           1   278.31024   520.67079
         274           1           2   269.85293   504.84860
         274           1           3   315.41105   590.08004
         274           1           4   342.17870   640.15774
         274           1           5   353.61358   661.55044
         274           2           1   278.31833   520.68591
         274           2           2   269.73975   504.63687
         274           2           3   316.01048   591.20148
         274           2           4   340.20845   636.47172
         274           2           5   352.81353   660.05367
         274           3           1   279.31637   522.55308
         274           3           2   272.59683   509.98196
         274           3           3   316.50787   592.13200
         274           3           4   336.35028   629.25376
         274           3           5   351.40438   657.41740
         274           4           1   278.95223   521.87183
         274           4           2   275.37890   515.18675
         274           4           3   312.74185   585.08643
         274           4           4   335.84145   628.30182
         274           4           5   347.62923   650.35473
         274           5           1   278.68079   521.36402
         274           5           2   276.12496   516.58250
         274           5           3   311.15719   582.12181
         274           5           4   333.70871   624.31183
         274           5           5   345.53340   646.43379
         275           1           1   276.02840   516.40185
         275           1           2   269.45662   504.10717
         275           1           3   282.29471   528.12504
         275           1           4   337.47971   631.36672
         275           1           5   360.17280   673.82162
         275           2           1   277.00537   518.22960
         275           2           2   269.51004   504.20712
         275           2           3   290.38298   543.25681
         275           2           4   338.65088   633.55778
         275           2           5   359.30710   672.20203
         275           3           1   280.10390   524.02641
         275           3           2   270.55290   506.15814
         275           3           3   306.05080   572.56862
         275           3           4   340.41328   636.85493
         275           3           5   357.16091   668.18688
         275           4           1   278.88614   521.74819
         275           4           2   269.94382   505.01864
         275           4           3   312.26778   584.19952
         275           4           4   341.58513   639.04726
         275           4           5   354.84154   663.84774
         275           5           1   278.31024   520.67079
         275           5           2   269.85293   504.84860
         275           5           3   315.41105   590.08004
         275           5           4   342.17870   640.15774
         275           5           5   353.61358   661.55044
         276           1           1   268.34057   502.01924
         276           1           2   251.62214   470.74192
         276           1           3   264.89864   495.57998
         276           1           4   324.44921   606.98889
         276           1           5   344.87212   645.19667
         276           2           1   269.19152   503.61123
         276           2           2   253.98012   475.15330
         276           2           3   265.72507   497.12609
         276           2           4   326.64959   611.10543
         276           2           5   346.74882   648.70764
         276           3           1   271.01380   507.02040
         276           3           2   260.15009   486.69625
         276           3           3   267.45408   500.36077
         276           3           4   332.29631   621.66946
         276           3           5   350.30637   655.36320
         276           4           1   274.44527   513.44008
         276           4           2   266.30799   498.21663
         276           4           3   277.22353   518.63773
         276           4           4   335.94515   628.49583
         276           4           5   356.74985   667.41785
         276           5           1   276.02840   516.40185
         276           5           2   269.45662   504.10717
         276           5           3   282.29471   528.12504
         276           5           4   337.47971   631.36672
         276           5           5   360.17280   673.82162
         277           1           1   232.32868   434.64715
         277           1           2   247.82985   463.64719
         277           1           3   271.91020   508.69740
         277           1           4   269.81841   504.78402
         277           1           5   267.27741   500.03024
         277           2           1   235.48362   440.54952
         277           2           2   248.22226   464.38132
         277           2           3   274.96348   514.40958
         277           2           4   272.10796   509.06738
         277           2           5   265.10270   495.96174
         277           3           1   237.49166   444.30622
         277           3           2   252.02430   471.49429
         277           3           3   278.39597   520.83118
         277           3           4   271.06789   507.12158
         277           3           5   263.59210   493.13567
         277           4           1   238.69864   446.56427
         277           4           2   254.48657   476.10078
         277           4           3   279.90210   523.64888
         277           4           4   269.23789   503.69797
         277           4           5   262.51999   491.12993
         277           5           1   239.59049   448.23276
         277           5           2   252.59050   472.55356
         277           5           3   278.85948   521.69832
         277           5           4   268.00926   501.39941
         277           5           5   261.40416   489.04240
         278           1           1   223.50001   418.13023
         278           1           2   246.20724   460.61157
         278           1           3   262.44628   490.99203
         278           1           4   275.02143   514.51798
         278           1           5   276.32465   516.95609
         278           2           1   224.59156   420.17234
         278           2           2   247.09883   462.27958
         278           2           3   263.18093   492.36643
         278           2           4   272.03980   508.93986
         278           2           5   274.98327   514.44658
         278           3           1   227.35245   425.33749
         278           3           2   247.13126   462.34026
         278           3           3   265.79550   497.25785
         278           3           4   269.93722   505.00630
         278           3           5   272.67784   510.13353
         278           4           1   229.18013   428.75677
         278           4           2   247.43743   462.91305
         278           4           3   268.78665   502.85378
         278           4           4   268.22901   501.81052
         278           4           5   269.45211   504.09874
         278           5           1   232.32868   434.64715
         278           5           2   247.82985   463.64719
         278           5           3   271.91020   508.69740
         278           5           4   269.81841   504.78402
         278           5           5   267.27741   500.03024
         279           1           1   221.75486   414.86536
         279           1           2   245.30415   458.92205
         279           1           3   258.54613   483.69551
         279           1           4   291.75083   545.81582
         279           1           5   288.92967   540.53792
         279           2           1   222.17501   415.65138
         279           2           2   244.85400   458.07989
         279           2           3   260.88927   488.07913
         279           2           4   285.97294   535.00638
         279           2           5   285.68996   534.47698
         279           3           1   222.25860   415.80776
         279           3           2   244.72019   457.82955
         279           3           3   262.43927   490.97893
         279           3           4   282.64812   528.78621
         279           3           5   281.65791   526.93369
         279           4           1   222.40845   416.08812
         279           4           2   245.31565   458.94355
         279           4           3   261.71163   489.61762
         279           4           4   278.00725   520.10394
         279           4           5   277.66839   519.46999
         279           5           1   223.50001   418.13023
         279           5           2   246.20724   460.61157
         279           5           3   262.44628   490.99203
         279           5           4   275.02143   514.51798
         279           5           5   276.32465   516.95609
         280           1           1   213.85654   400.08894
         280           1           2   245.49945   459.28741
         280           1           3   246.44687   461.05987
         280           1           4   301.49123   564.03844
         280           1           5   293.96949   549.96656
         280           2           1   215.68472   403.50917
         280           2           2   246.72035   461.57151
         280           2           3   247.86381   463.71072
         280           2           4   300.55627   562.28930
         280           2           5   295.00248   551.89911
         280           3           1   217.89829   407.65037
         280           3           2   246.51259   461.18283
         280           3           3   252.99256   473.30573
         280           3           4   296.58446   554.85871
         280           3           5   294.59272   551.13251
         280           4           1   220.52921   412.57237
         280           4           2   245.73229   459.72302
         280           4           3   257.07393   480.94128
         280           4           4   294.66474   551.26725
         280           4           5   292.26643   546.78043
         280           5           1   221.75486   414.86536
         280           5           2   245.30415   458.92205
         280           5           3   258.54613   483.69551
         280           5           4   291.75083   545.81582
         280           5           5   288.92967   540.53792
         281           1           1   204.56737   382.71050
         281           1           2   221.85001   415.04337
         281           1           3   234.79957   439.26978
         281           1           4   293.93458   549.90125
         281           1           5   290.51696   543.50747
         281           2           1   204.59743   382.76674
         281           2           2   224.91637   420.78001
         281           2           3   236.98813   443.36419
         281           2           4   296.17578   554.09415
         281           2           5   291.63058   545.59086
         281           3           1   208.97422   390.95497
         281           3           2   236.21043   441.90924
         281           3           3   240.76073   450.42209
         281           3           4   296.81434   555.28878
         281           3           5   291.64114   545.61061
         281           4           1   211.82089   396.28059
         281           4           2   244.31154   457.06505
         281           4           3   244.74060   457.86774
         281           4           4   298.93457   559.25538
         281           4           5   292.93651   548.03402
         281           5           1   213.85654   400.08894
         281           5           2   245.49945   459.28741
         281           5           3   246.44687   461.05987
         281           5           4   301.49123   564.03844
         281           5           5   293.96949   549.96656
         282           1           1   193.02922   361.12460
         282           1           2   209.67234   392.26103
         282           1           3   220.94180   413.34426
         282           1           4   312.38405   584.41705
         282           1           5   289.02271   540.71198
         282           2           1   196.45269   367.52933
         282           2           2   211.99450   396.60540
         282           2           3   221.08126   413.60517
         282           2           4   309.02107   578.12548
         282           2           5   287.53968   537.93749
         282           3           1   201.06864   376.16499
         282           3           2   214.85960   401.96550
         282           3           3   225.79293   422.41989
         282           3           4   304.15401   569.02005
         282           3           5   287.40922   537.69341
         282           4           1   204.53731   382.65427
         282           4           2   218.78365   409.30674
         282           4           3   231.87781   433.80367
         282           4           4   298.15738   557.80137
         282           4           5   288.73840   540.18008
         282           5           1   204.56737   382.71050
         282           5           2   221.85001   415.04337
         282           5           3   234.79957   439.26978
         282           5           4   293.93458   549.90125
         282           5           5   290.51696   543.50747
         283           1           1   176.22295   329.68295
         283           1           2   196.60029   367.80547
         283           1           3   223.55464   418.23244
         283           1           4   325.63885   609.21450
         283           1           5   307.42900   575.14700
         283           2           1   177.14305   331.40429
         283           2           2   199.36256   372.97319
         283           2           3   220.94251   413.34559
         283           2           4   324.50110   607.08597
         283           2           5   304.21506   569.13426
         283           3           1   184.04455   344.31583
         283           3           2   203.09601   379.95784
         283           3           3   221.00998   413.47182
         283           3           4   321.69280   601.83211
         283           3           5   295.68974   553.18486
         283           4           1   189.60574   354.71987
         283           4           2   207.35017   387.91665
         283           4           3   220.85899   413.18934
         283           4           4   315.59793   590.42965
         283           4           5   290.50574   543.48648
         283           5           1   193.02922   361.12460
         283           5           2   209.67234   392.26103
         283           5           3   220.94180   413.34426
         283           5           4   312.38405   584.41705
         283           5           5   289.02271   540.71198
         284           1           1   173.31509   324.24284
         284           1           2   182.58356   341.58256
         284           1           3   228.92830   428.28564
         284           1           4   323.13883   604.53740
         284           1           5   311.07346   581.96515
         284           2           1   174.86257   327.13790
         284           2           2   186.11112   348.18202
         284           2           3   229.31818   429.01504
         284           2           4   322.73848   603.78840
         284           2           5   311.92742   583.56276
         284           3           1   173.74146   325.04051
         284           3           2   189.91328   355.29521
         284           3           3   227.51235   425.63662
         284           3           4   325.04875   608.11053
         284           3           5   312.86084   585.30903
         284           4           1   175.31800   327.98994
         284           4           2   193.83362   362.62950
         284           4           3   225.17612   421.26594
         284           4           4   326.82817   611.43952
         284           4           5   310.63580   581.14637
         284           5           1   176.22295   329.68295
         284           5           2   196.60029   367.80547
         284           5           3   223.55464   418.23244
         284           5           4   325.63885   609.21450
         284           5           5   307.42900   575.14700
         285           1           1   160.79783   300.82520
         285           1           2   156.97966   293.68206
         285           1           3   213.09563   398.66542
         285           1           4   320.98930   600.51599
         285           1           5   310.72667   581.31638
         285           2           1   164.66782   308.06528
         285           2           2   162.28740   303.61193
         285           2           3   216.67690   405.36537
         285           2           4   320.91881   600.38412
         285           2           5   309.93307   579.83168
         285           3           1   170.04458   318.12428
         285           3           2   171.80348   321.41488
         285           3           3   223.72354   418.54842
         285           3           4   321.17662   600.86644
         285           3           5   307.72950   575.70917
         285           4           1   173.03486   323.71859
         285           4           2   178.95188   334.78832
         285           4           3   228.13891   426.80881
         285           4           4   323.21567   604.68115
         285           4           5   308.61685   577.36926
         285           5           1   173.31509   324.24284
         285           5           2   182.58356   341.58256
         285           5           3   228.92830   428.28564
         285           5           4   323.13883   604.53740
         285           5           5   311.07346   581.96515
         286           1           1   137.58184   257.39206
         286           1           2   140.29453   262.46703
         286           1           3   201.03816   376.10796
         286           1           4   305.63495   571.79064
         286           1           5   302.81443   566.51392
         286           2           1   140.43636   262.73238
         286           2           2   140.67767   263.18382
         286           2           3   202.29801   378.46493
         286           2           4   311.17587   582.15674
         286           2           5   304.56874   569.79594
         286           3           1   148.49680   277.81208
         286           3           2   144.04922   269.49141
         286           3           3   204.36424   382.33049
         286           3           4   318.16357   595.22954
         286           3           5   309.45529   578.93783
         286           4           1   156.71604   293.18886
         286           4           2   151.63174   283.67700
         286           4           3   209.29134   391.54824
         286           4           4   320.44204   599.49215
         286           4           5   311.27051   582.33380
         286           5           1   160.79783   300.82520
         286           5           2   156.97966   293.68206
         286           5           3   213.09563   398.66542
         286           5           4   320.98930   600.51599
         286           5           5   310.72667   581.31638
         287           1           1   134.49455   251.61627
         287           1           2   144.22998   269.82958
         287           1           3   204.45168   382.49408
         287           1           4   278.82477   521.63337
         287           1           5   290.39738   543.28376
         287           2           1   133.49495   249.74618
         287           2           2   140.88740   263.57619
         287           2           3   200.88782   375.82671
         287           2           4   282.23044   528.00481
         287           2           5   295.84511   553.47553
         287           3           1   130.68190   244.48345
         287           3           2   139.56975   261.11109
         287           3           3   196.80758   368.19327
         287           3           4   290.71656   543.88088
         287           3           5   299.43508   560.19174
         287           4           1   134.51113   251.64729
         287           4           2   140.21984   262.32730
         287           4           3   198.57030   371.49101
         287           4           4   299.78891   560.85370
         287           4           5   301.91185   564.82534
         287           5           1   137.58184   257.39206
         287           5           2   140.29453   262.46703
         287           5           3   201.03816   376.10796
         287           5           4   305.63495   571.79064
         287           5           5   302.81443   566.51392
         288           1           1   159.57583   298.53905
         288           1           2   169.26540   316.66657
         288           1           3   219.24139   410.16308
         288           1           4   269.87703   504.89369
         288           1           5   261.59319   489.39605
         288           2           1   154.45948   288.96722
         288           2           2   164.22391   307.23480
         288           2           3   217.87380   407.60455
         288           2           4   270.36099   505.79909
         288           2           5   265.75137   497.17530
         288           3           1   146.39497   273.87991
         288           3           2   155.31162   290.56143
         288           3           3   213.52366   399.46619
         288           3           4   273.23088   511.16817
         288           3           5   273.78727   512.20908
         288           4           1   138.52297   259.15275
         288           4           2   148.40644   277.64302
         288           4           3   208.46010   389.99314
         288           4           4   275.84918   516.06655
         288           4           5   284.06612   531.43904
         288           5           1   134.49455   251.61627
         288           5           2   144.22998   269.82958
         288           5           3   204.45168   382.49408
         288           5           4   278.82477   521.63337
         288           5           5   290.39738   543.28376
         289           1           1   199.47535   373.18421
         289           1           2   201.21491   376.43863
         289           1           3   223.87612   418.83386
         289           1           4   264.12912   494.14034
         289           1           5   253.49265   474.24132
         289           2           1   191.34640   357.97634
         289           2           2   193.04046   361.14562
         289           2           3   225.19232   421.29625
         289           2           4   266.01462   497.66779
         289           2           5   252.94386   473.21462
         289           3           1   179.08540   335.03810
         289           3           2   181.95609   340.40866
         289           3           3   223.77198   418.63904
         289           3           4   268.31225   501.96626
         289           3           5   252.43048   472.25418
         289           4           1   165.28744   309.22448
         289           4           2   172.87660   323.42249
         289           4           3   221.01288   413.47723
         289           4           4   269.76714   504.68811
         289           4           5   257.78013   482.26246
         289           5           1   159.57583   298.53905
         289           5           2   169.26540   316.66657
         289           5           3   219.24139   410.16308
         289           5           4   269.87703   504.89369
         289           5           5   261.59319   489.39605
         290           1           1   244.04245   456.56161
         290           1           2   254.31157   475.77339
         290           1           3   243.24676   455.07302
         290           1           4   258.95756   484.46523
         290           1           5   257.15514   481.09322
         290           2           1   236.79934   443.01101
         290           2           2   245.13703   458.60940
         290           2           3   241.58903   451.97169
         290           2           4   258.19879   483.04570
         290           2           5   256.48444   479.83845
         290           3           1   223.86649   418.81586
         290           3           2   228.10388   426.74327
         290           3           3   230.91414   432.00080
         290           3           4   258.10268   482.86591
         290           3           5   255.93407   478.80880
         290           4           1   208.52457   390.11375
         290           4           2   210.67876   394.14386
         290           4           3   225.42575   421.73297
         290           4           4   262.12047   490.38249
         290           4           5   254.48462   476.09712
         290           5           1   199.47535   373.18421
         290           5           2   201.21491   376.43863
         290           5           3   223.87612   418.83386
         290           5           4   264.12912   494.14034
         290           5           5   253.49265   474.24132
         291           1           1   284.71045   532.64448
         291           1           2   299.86689   560.99959
         291           1           3   277.23208   518.65374
         291           1           4   262.28699   490.69403
         291           1           5   255.75580   478.47530
         291           2           1   277.85484   519.81882
         291           2           2   293.49130   549.07195
         291           2           3   272.01797   508.89903
         291           2           4   261.17989   488.62283
         291           2           5   256.63163   480.11382
         291           3           1   262.09161   490.32851
         291           3           2   279.06206   522.07731
         291           3           3   263.18647   492.37680
         291           3           4   259.77136   485.98771
         291           3           5   257.05389   480.90379
         291           4           1   249.25575   466.31482
         291           4           2   263.11387   492.24097
         291           4           3   250.66184   468.94537
         291           4           4   260.35563   487.08078
         291           4           5   257.27588   481.31910
         291           5           1   244.04245   456.56161
         291           5           2   254.31157   475.77339
         291           5           3   243.24676   455.07302
         291           5           4   258.95756   484.46523
         291           5           5   257.15514   481.09322
         292           1           1   318.27226   595.43287
         292           1           2   324.22851   606.57600
         292           1           3   310.34078   580.59444
         292           1           4   265.37595   496.47295
         292           1           5   254.03656   475.25889
         292           2           1   315.20641   589.69720
         292           2           2   321.25022   601.00413
         292           2           3   304.91223   570.43856
         292           2           4   263.30934   492.60667
         292           2           5   252.78731   472.92175
         292           3           1   302.82161   566.52735
         292           3           2   314.88472   589.09537
         292           3           3   292.98240   548.11988
         292           3           4   262.79567   491.64567
         292           3           5   252.26295   471.94077
         292           4           1   290.86948   544.16698
         292           4           2   305.43230   571.41151
         292           4           3   282.66694   528.82142
         292           4           4   262.70167   491.46982
         292           4           5   254.29260   475.73790
         292           5           1   284.71045   532.64448
         292           5           2   299.86689   560.99959
         292           5           3   277.23208   518.65374
         292           5           4   262.28699   490.69403
         292           5           5   255.75580   478.47530
         293           1           1   328.86055   615.24176
         293           1           2   330.97933   619.20563
         293           1           3   333.83881   624.55522
         293           1           4   282.66524   528.81825
         293           1           5   265.25878   496.25374
         293           2           1   328.14872   613.91004
         293           2           2   330.57332   618.44605
         293           2           3   330.85852   618.97960
         293           2           4   278.50060   521.02691
         293           2           5   262.63818   491.35104
         293           3           1   326.90786   611.58860
         293           3           2   330.47772   618.26720
         293           3           3   323.86624   605.89826
         293           3           4   270.08078   505.27487
         293           3           5   257.73537   482.17873
         293           4           1   321.49686   601.46556
         293           4           2   326.65352   611.11277
         293           4           3   314.78626   588.91118
         293           4           4   267.98144   501.34736
         293           4           5   255.11949   477.28486
         293           5           1   318.27226   595.43287
         293           5           2   324.22851   606.57600
         293           5           3   310.34078   580.59444
         293           5           4   265.37595   496.47295
         293           5           5   254.03656   475.25889
         294           1           1   333.51405   623.94766
         294           1           2   347.32919   649.79341
         294           1           3   357.17963   668.22191
         294           1           4   297.67084   556.89115
         294           1           5   281.89251   527.37259
         294           2           1   333.23022   623.41666
         294           2           2   343.46633   642.56667
         294           2           3   352.18480   658.87743
         294           2           4   296.33326   554.38877
         294           2           5   279.33159   522.58155
         294           3           1   332.27114   621.62237
         294           3           2   334.69620   626.15926
         294           3           3   341.57317   639.02489
         294           3           4   291.46215   545.27575
         294           3           5   273.38495   511.45642
         294           4           1   329.70460   616.82083
         294           4           2   331.89812   620.92452
         294           4           3   335.79765   628.21988
         294           4           4   285.38780   533.91168
         294           4           5   267.92877   501.24884
         294           5           1   328.86055   615.24176
         294           5           2   330.97933   619.20563
         294           5           3   333.83881   624.55522
         294           5           4   282.66524   528.81825
         294           5           5   265.25878   496.25374
         295           1           1   331.21071   619.63850
         295           1           2   350.83893   656.35954
         295           1           3   371.25494   694.55439
         295           1           4   320.08957   598.83276
         295           1           5   284.91898   533.03461
         295           2           1   331.24197   619.69698
         295           2           2   351.16069   656.96149
         295           2           3   370.11329   692.41857
         295           2           4   315.36278   589.98974
         295           2           5   284.41886   532.09896
         295           3           1   331.75989   620.66592
         295           3           2   352.58134   659.61928
         295           3           3   367.91409   688.30423
         295           3           4   306.57311   573.54578
         295           3           5   283.86286   531.05879
         295           4           1   333.21760   623.39305
         295           4           2   349.78006   654.37857
         295           4           3   361.06787   675.49614
         295           4           4   298.96220   559.30706
         295           4           5   282.38424   528.29254
         295           5           1   333.51405   623.94766
         295           5           2   347.32919   649.79341
         295           5           3   357.17963   668.22191
         295           5           4   297.67084   556.89115
         295           5           5   281.89251   527.37259
         296           1           1   331.35911   619.91613
         296           1           2   360.13897   673.75832
         296           1           3   377.00152   705.30526
         296           1           4   334.67987   626.12870
         296           1           5   287.98593   538.77234
         296           2           1   331.37396   619.94391
         296           2           2   358.61554   670.90823
         296           2           3   375.37839   702.26866
         296           2           4   334.76987   626.29708
         296           2           5   288.15988   539.09777
         296           3           1   331.69671   620.54773
         296           3           2   353.41223   661.17374
         296           3           3   372.37814   696.65571
         296           3           4   331.59061   620.34922
         296           3           5   286.85489   536.65636
         296           4           1   331.13719   619.50095
         296           4           2   351.55169   657.69299
         296           4           3   371.43490   694.89106
         296           4           4   324.42557   606.94466
         296           4           5   285.91940   534.90622
         296           5           1   331.21071   619.63850
         296           5           2   350.83893   656.35954
         296           5           3   371.25494   694.55439
         296           5           4   320.08957   598.83276
         296           5           5   284.91898   533.03461
         297           1           1   333.23167   623.41936
         297           1           2   369.09589   690.51517
         297           1           3   391.70999   732.82229
         297           1           4   331.26091   619.73242
         297           1           5   278.68079   521.36402
         297           2           1   333.46927   623.86388
         297           2           2   369.41677   691.11549
         297           2           3   389.27833   728.27306
         297           2           4   332.97427   622.93782
         297           2           5   279.66627   523.20768
         297           3           1   333.79934   624.48138
         297           3           2   370.63493   693.39447
         297           3           3   383.97012   718.34231
         297           3           4   334.91197   626.56292
         297           3           5   282.28411   528.10521
         297           4           1   332.66857   622.36590
         297           4           2   364.00017   680.98195
         297           4           3   379.41858   709.82716
         297           4           4   333.71967   624.33233
         297           4           5   286.07597   535.19913
         297           5           1   331.35911   619.91613
         297           5           2   360.13897   673.75832
         297           5           3   377.00152   705.30526
         297           5           4   334.67987   626.12870
         297           5           5   287.98593   538.77234
         298           1           1   332.18424   621.45981
         298           1           2   364.63469   682.16905
         298           1           3   379.39346   709.78017
         298           1           4   315.18038   589.64850
         298           1           5   278.31024   520.67079
         298           2           1   332.61690   622.26924
         298           2           2   366.11290   684.93452
         298           2           3   382.62429   715.82451
         298           2           4   316.89374   592.85391
         298           2           5   278.31833   520.68591
         298           3           1   333.66440   624.22894
         298           3           2   369.74351   691.72676
         298           3           3   388.27325   726.39273
         298           3           4   320.00552   598.67552
         298           3           5   279.31637   522.55308
         298           4           1   332.94380   622.88082
         298           4           2   369.26219   690.82630
         298           4           3   390.84467   731.20342
         298           4           4   328.64827   614.84461
         298           4           5   278.95223   521.87183
         298           5           1   333.23167   623.41936
         298           5           2   369.09589   690.51517
         298           5           3   391.70999   732.82229
         298           5           4   331.26091   619.73242
         298           5           5   278.68079   521.36402
         299           1           1   324.23673   606.59138
         299           1           2   338.30769   632.91573
         299           1           3   366.68731   686.00914
         299           1           4   305.75627   572.01760
         299           1           5   276.02840   516.40185
         299           2           1   325.57466   609.09442
         299           2           2   343.26928   642.19802
         299           2           3   367.99682   688.45902
         299           2           4   308.20477   576.59832
         299           2           5   277.00537   518.22960
         299           3           1   328.42540   614.42766
         299           3           2   352.52262   659.50943
         299           3           3   370.56050   693.25521
         299           3           4   312.57991   584.78347
         299           3           5   280.10390   524.02641
         299           4           1   330.39996   618.12173
         299           4           2   360.54900   674.52541
         299           4           3   376.75172   704.83792
         299           4           4   314.41571   588.21794
         299           4           5   278.88614   521.74819
         299           5           1   332.18424   621.45981
         299           5           2   364.63469   682.16905
         299           5           3   379.39346   709.78017
         299           5           4   315.18038   589.64850
         299           5           5   278.31024   520.67079
         300           1           1   314.74794   588.83947
         300           1           2   327.84068   613.33375
         300           1           3   352.64425   659.73698
         300           1           4   303.47778   567.75494
         300           1           5   268.34057   502.01924
         300           2           1   315.93776   591.06543
         300           2           2   329.25715   615.98372
         300           2           3   356.73559   667.39118
         300           2           4   301.30490   563.68986
         300           2           5   269.19152   503.61123
         300           3           1   316.57480   592.25722
         300           3           2   332.03156   621.17418
         300           3           3   364.52028   681.95499
         300           3           4   301.97558   564.94458
         300           3           5   271.01380   507.02040
         300           4           1   321.23598   600.97748
         300           4           2   336.26745   629.09880
         300           4           3   366.31394   685.31063
         300           4           4   304.39647   569.47365
         300           4           5   274.44527   513.44008
         300           5           1   324.23673   606.59138
         300           5           2   338.30769   632.91573
         300           5           3   366.68731   686.00914
         300           5           4   305.75627   572.01760
         300           5           5   276.02840   516.40185
         301           1           1   173.06603   323.77689
         301           1           2   160.76815   300.76967
         301           1           3   146.00554   273.15135
         301           1           4   198.64007   371.62154
         301           1           5   232.32868   434.64715
         301           2           1   176.83703   330.83180
         301           2           2   164.11850   307.03759
         301           2           3   148.77301   278.32881
         301           2           4   201.01665   376.06771
         301           2           5   235.48362   440.54952
         301           3           1   178.67528   334.27083
         301           3           2   166.97745   312.38620
         301           3           3   155.53119   290.97221
         301           3           4   207.30383   387.82995
         301           3           5   237.49166   444.30622
         301           4           1   179.26231   335.36908
         301           4           2   169.05689   316.27648
         301           4           3   163.13933   305.20575
         301           4           4   212.73891   397.99806
         301           4           5   238.69864   446.56427
         301           5           1   176.49013   330.18279
         301           5           2   169.89105   317.83704
         301           5           3   168.31152   314.88201
         301           5           4   216.21545   404.50207
         301           5           5   239.59049   448.23276
         302           1           1   160.45159   300.17743
         302           1           2   145.81469   272.79431
         302           1           3   126.24126   236.17578
         302           1           4   194.92697   364.67497
         302           1           5   223.50001   418.13023
         302           2           1   161.10273   301.39562
         302           2           2   146.97779   274.97027
         302           2           3   127.91873   239.31403
         302           2           4   197.15367   368.84075
         302           2           5   224.59156   420.17234
         302           3           1   164.78077   308.27660
         302           3           2   151.82550   284.03951
         302           3           3   133.68681   250.10512
         302           3           4   198.14297   370.69155
         302           3           5   227.35245   425.33749
         302           4           1   170.11255   318.25144
         302           4           2   157.41781   294.50175
         302           4           3   142.49546   266.58459
         302           4           4   198.38840   371.15072
         302           4           5   229.18013   428.75677
         302           5           1   173.06603   323.77689
         302           5           2   160.76815   300.76967
         302           5           3   146.00554   273.15135
         302           5           4   198.64007   371.62154
         302           5           5   232.32868   434.64715
         303           1           1   168.20529   314.68328
         303           1           2   143.94157   269.29001
         303           1           3   125.21227   234.25071
         303           1           4   187.19370   350.20734
         303           1           5   221.75486   414.86536
         303           2           1   165.08525   308.84623
         303           2           2   143.21658   267.93368
         303           2           3   122.20138   228.61784
         303           2           4   188.01488   351.74363
         303           2           5   222.17501   415.65138
         303           3           1   162.58189   304.16287
         303           3           2   143.51616   268.49416
         303           3           3   122.63173   229.42295
         303           3           4   191.51726   358.29598
         303           3           5   222.25860   415.80776
         303           4           1   160.16322   299.63795
         303           4           2   144.65159   270.61834
         303           4           3   124.57335   233.05541
         303           4           4   192.74048   360.58443
         303           4           5   222.40845   416.08812
         303           5           1   160.45159   300.17743
         303           5           2   145.81469   272.79431
         303           5           3   126.24126   236.17578
         303           5           4   194.92697   364.67497
         303           5           5   223.50001   418.13023
         304           1           1   177.39043   331.86710
         304           1           2   152.07164   284.49999
         304           1           3   150.59094   281.72985
         304           1           4   190.28600   355.99250
         304           1           5   213.85654   400.08894
         304           2           1   174.66742   326.77283
         304           2           2   149.29762   279.31027
         304           2           3   148.36133   277.55863
         304           2           4   192.11939   359.42246
         304           2           5   215.68472   403.50917
         304           3           1   172.81874   323.31426
         304           3           2   146.69732   274.44556
         304           3           3   137.22027   256.71561
         304           3           4   195.18702   365.16147
         304           3           5   217.89829   407.65037
         304           4           1   170.85035   319.63174
         304           4           2   144.66656   270.64635
         304           4           3   128.26943   239.97013
         304           4           4   190.23894   355.90447
         304           4           5   220.52921   412.57237
         304           5           1   168.20529   314.68328
         304           5           2   143.94157   269.29001
         304           5           3   125.21227   234.25071
         304           5           4   187.19370   350.20734
         304           5           5   221.75486   414.86536
         305           1           1   186.97288   349.79422
         305           1           2   179.13375   335.12856
         305           1           3   165.13372   308.93690
         305           1           4   180.14454   337.01958
         305           1           5   204.56737   382.71050
         305           2           1   184.03587   344.29959
         305           2           2   174.71916   326.86961
         305           2           3   162.52188   304.05059
         305           2           4   181.69930   339.92827
         305           2           5   204.59743   382.76674
         305           3           1   182.88398   342.14459
         305           3           2   163.72554   306.30244
         305           3           3   157.57923   294.80374
         305           3           4   185.95897   347.89739
         305           3           5   208.97422   390.95497
         305           4           1   180.13479   337.00133
         305           4           2   154.84567   289.68971
         305           4           3   154.92885   289.84535
         305           4           4   187.79917   351.34008
         305           4           5   211.82089   396.28059
         305           5           1   177.39043   331.86710
         305           5           2   152.07164   284.49999
         305           5           3   150.59094   281.72985
         305           5           4   190.28600   355.99250
         305           5           5   213.85654   400.08894
         306           1           1   199.89751   373.97400
         306           1           2   196.50100   367.61971
         306           1           3   157.44179   294.54661
         306           1           4   166.76737   311.99318
         306           1           5   193.02922   361.12460
         306           2           1   198.17650   370.75428
         306           2           2   195.84616   366.39461
         306           2           3   159.75788   298.87963
         306           2           4   171.28248   320.44017
         306           2           5   196.45269   367.52933
         306           3           1   191.98119   359.16392
         306           3           2   190.35466   356.12095
         306           3           3   163.98259   306.78333
         306           3           4   175.62978   328.57324
         306           3           5   201.06864   376.16499
         306           4           1   188.11705   351.93478
         306           4           2   183.54834   343.38750
         306           4           3   167.74556   313.82321
         306           4           4   179.04690   334.96608
         306           4           5   204.53731   382.65427
         306           5           1   186.97288   349.79422
         306           5           2   179.13375   335.12856
         306           5           3   165.13372   308.93690
         306           5           4   180.14454   337.01958
         306           5           5   204.56737   382.71050
         307           1           1   202.26006   378.39392
         307           1           2   190.91720   357.17338
         307           1           3   152.92563   286.09765
         307           1           4   157.95376   295.50444
         307           1           5   176.22295   329.68295
         307           2           1   204.29789   382.20635
         307           2           2   192.75894   360.61896
         307           2           3   151.34645   283.14329
         307           2           4   159.06304   297.57971
         307           2           5   177.14305   331.40429
         307           3           1   203.86523   381.39691
         307           3           2   195.96940   366.62517
         307           3           3   152.92311   286.09295
         307           3           4   161.18255   301.54494
         307           3           5   184.04455   344.31583
         307           4           1   201.92056   377.75877
         307           4           2   197.15585   368.84481
         307           4           3   155.12569   290.21360
         307           4           4   163.48896   305.85984
         307           4           5   189.60574   354.71987
         307           5           1   199.89751   373.97400
         307           5           2   196.50100   367.61971
         307           5           3   157.44179   294.54661
         307           5           4   166.76737   311.99318
         307           5           5   193.02922   361.12460
         308           1           1   191.56098   358.37778
         308           1           2   181.38134   339.33342
         308           1           3   152.08550   284.52591
         308           1           4   157.92492   295.45047
         308           1           5   173.31509   324.24284
         308           2           1   196.27761   367.20179
         308           2           2   182.31282   341.07605
         308           2           3   152.51481   285.32907
         308           2           4   160.55572   300.37225
         308           2           5   174.86257   327.13790
         308           3           1   198.33699   371.05454
         308           3           2   185.70088   347.41454
         308           3           3   151.02620   282.54415
         308           3           4   160.70260   300.64704
         308           3           5   173.74146   325.04051
         308           4           1   201.21501   376.43881
         308           4           2   189.10869   353.78997
         308           4           3   151.37990   283.20586
         308           4           4   158.57876   296.67370
         308           4           5   175.31800   327.98994
         308           5           1   202.26006   378.39392
         308           5           2   190.91720   357.17338
         308           5           3   152.92563   286.09765
         308           5           4   157.95376   295.50444
         308           5           5   176.22295   329.68295
         309           1           1   173.24552   324.11269
         309           1           2   173.75958   325.07441
         309           1           3   147.46140   275.87502
         309           1           4   136.71818   255.77629
         309           1           5   160.79783   300.82520
         309           2           1   176.13823   329.52445
         309           2           2   175.00349   327.40156
         309           2           3   150.33222   281.24584
         309           2           4   140.09387   262.09164
         309           2           5   164.66782   308.06528
         309           3           1   182.62447   341.65910
         309           3           2   178.24522   333.46626
         309           3           3   152.94144   286.12723
         309           3           4   148.09772   277.06546
         309           3           5   170.04458   318.12428
         309           4           1   186.59599   349.08913
         309           4           2   180.55966   337.79619
         309           4           3   153.44777   287.07449
         309           4           4   155.04379   290.06038
         309           4           5   173.03486   323.71859
         309           5           1   191.56098   358.37778
         309           5           2   181.38134   339.33342
         309           5           3   152.08550   284.52591
         309           5           4   157.92492   295.45047
         309           5           5   173.31509   324.24284
         310           1           1   159.15377   297.74945
         310           1           2   168.28090   314.82473
         310           1           3   136.37406   255.13250
         310           1           4   129.73944   242.72027
         310           1           5   137.58184   257.39206
         310           2           1   161.55299   302.23798
         310           2           2   169.36338   316.84986
         310           2           3   135.50825   253.51272
         310           2           4   128.58474   240.56002
         310           2           5   140.43636   262.73238
         310           3           1   166.65679   311.78630
         310           3           2   170.81537   319.56630
         310           3           3   141.06052   263.90008
         310           3           4   127.56174   238.64616
         310           3           5   148.49680   277.81208
         310           4           1   170.42667   318.83911
         310           4           2   172.63890   322.97781
         310           4           3   144.18474   269.74495
         310           4           4   133.17350   249.14481
         310           4           5   156.71604   293.18886
         310           5           1   173.24552   324.11269
         310           5           2   173.75958   325.07441
         310           5           3   147.46140   275.87502
         310           5           4   136.71818   255.77629
         310           5           5   160.79783   300.82520
         311           1           1   159.49008   298.37862
         311           1           2   162.48689   303.98513
         311           1           3   137.20808   256.69281
         311           1           4   145.79167   272.75124
         311           1           5   134.49455   251.61627
         311           2           1   158.21944   296.00146
         311           2           2   162.60002   304.19679
         311           2           3   133.62756   249.99427
         311           2           4   141.69403   265.08525
         311           2           5   133.49495   249.74618
         311           3           1   158.41432   296.36606
         311           3           2   164.88590   308.47327
         311           3           3   133.10530   249.01721
         311           3           4   137.77081   257.74558
         311           3           5   130.68190   244.48345
         311           4           1   158.94266   297.35449
         311           4           2   167.13044   312.67242
         311           4           3   134.85635   252.29313
         311           4           4   131.51900   246.04951
         311           4           5   134.51113   251.64729
         311           5           1   159.15377   297.74945
         311           5           2   168.28090   314.82473
         311           5           3   136.37406   255.13250
         311           5           4   129.73944   242.72027
         311           5           5   137.58184   257.39206
         312           1           1   156.44617   292.68398
         312           1           2   167.77918   313.88611
         312           1           3   176.70056   330.57647
         312           1           4   168.16252   314.60326
         312           1           5   159.57583   298.53905
         312           2           1   156.07996   291.99887
         312           2           2   167.95353   314.21228
         312           2           3   170.81549   319.56651
         312           2           4   165.25191   309.15801
         312           2           5   154.45948   288.96722
         312           3           1   157.69137   295.01354
         312           3           2   164.39674   307.55814
         312           3           3   152.69948   285.67457
         312           3           4   158.86792   297.21467
         312           3           5   146.39497   273.87991
         312           4           1   159.20042   297.83671
         312           4           2   162.71793   304.41737
         312           4           3   142.80157   267.15727
         312           4           4   150.65303   281.84600
         312           4           5   138.52297   259.15275
         312           5           1   159.49008   298.37862
         312           5           2   162.48689   303.98513
         312           5           3   137.20808   256.69281
         312           5           4   145.79167   272.75124
         312           5           5   134.49455   251.61627
         313           1           1   152.81330   285.88751
         313           1           2   160.72923   300.69685
         313           1           3   197.37319   369.25143
         313           1           4   199.27903   372.81692
         313           1           5   199.47535   373.18421
         313           2           1   153.24826   286.70124
         313           2           2   162.72695   304.43425
         313           2           3   194.96525   364.74659
         313           2           4   193.10913   361.27409
         313           2           5   191.34640   357.97634
         313           3           1   153.41154   287.00671
         313           3           2   164.81892   308.34796
         313           3           3   191.40071   358.07795
         313           3           4   180.72431   338.10423
         313           3           5   179.08540   335.03810
         313           4           1   155.36470   290.66075
         313           4           2   166.78003   312.01686
         313           4           3   181.02685   338.67022
         313           4           4   171.34660   320.56013
         313           4           5   165.28744   309.22448
         313           5           1   156.44617   292.68398
         313           5           2   167.77918   313.88611
         313           5           3   176.70056   330.57647
         313           5           4   168.16252   314.60326
         313           5           5   159.57583   298.53905
         314           1           1   153.40416   286.99291
         314           1           2   152.61812   285.52236
         314           1           3   214.49096   401.27584
         314           1           4   222.78426   416.79119
         314           1           5   244.04245   456.56161
         314           2           1   152.20995   284.75874
         314           2           2   152.23120   284.79849
         314           2           3   211.62995   395.92338
         314           2           4   219.46772   410.58650
         314           2           5   236.79934   443.01101
         314           3           1   149.07002   278.88447
         314           3           2   153.79179   287.71810
         314           3           3   205.79058   384.99892
         314           3           4   215.16344   402.53393
         314           3           5   223.86649   418.81586
         314           4           1   151.70711   283.81802
         314           4           2   157.91003   295.42261
         314           4           3   200.12240   374.39473
         314           4           4   205.18210   383.86056
         314           4           5   208.52457   390.11375
         314           5           1   152.81330   285.88751
         314           5           2   160.72923   300.69685
         314           5           3   197.37319   369.25143
         314           5           4   199.27903   372.81692
         314           5           5   199.47535   373.18421
         315           1           1   156.77793   293.30465
         315           1           2   163.54355   305.96197
         315           1           3   221.93849   415.20890
         315           1           4   257.40960   481.56927
         315           1           5   284.71045   532.64448
         315           2           1   156.07209   291.98414
         315           2           2   160.25302   299.80595
         315           2           3   220.99764   413.44873
         315           2           4   250.99948   469.57702
         315           2           5   277.85484   519.81882
         315           3           1   155.27715   290.49695
         315           3           2   156.21901   292.25901
         315           3           3   220.40710   412.34393
         315           3           4   238.85427   446.85542
         315           3           5   262.09161   490.32851
         315           4           1   153.88749   287.89712
         315           4           2   153.66279   287.47676
         315           4           3   217.21702   406.37583
         315           4           4   227.79335   426.16234
         315           4           5   249.25575   466.31482
         315           5           1   153.40416   286.99291
         315           5           2   152.61812   285.52236
         315           5           3   214.49096   401.27584
         315           5           4   222.78426   416.79119
         315           5           5   244.04245   456.56161
         316           1           1   162.89311   304.74510
         316           1           2   179.18044   335.21590
         316           1           3   220.35041   412.23788
         316           1           4   281.73195   527.07221
         316           1           5   318.27226   595.43287
         316           2           1   160.40556   300.09132
         316           2           2   177.87513   332.77390
         316           2           3   219.99720   411.57707
         316           2           4   277.80188   519.71972
         316           2           5   315.20641   589.69720
         316           3           1   158.37545   296.29333
         316           3           2   174.66827   326.77442
         316           3           3   221.49323   414.37589
         316           3           4   271.83272   508.55246
         316           3           5   302.82161   566.52735
         316           4           1   157.02091   293.75922
         316           4           2   167.87963   314.07402
         316           4           3   222.12540   415.55857
         316           4           4   263.85203   493.62196
         316           4           5   290.86948   544.16698
         316           5           1   156.77793   293.30465
         316           5           2   163.54355   305.96197
         316           5           3   221.93849   415.20890
         316           5           4   257.40960   481.56927
         316           5           5   284.71045   532.64448
         317           1           1   166.75032   311.96128
         317           1           2   191.73774   358.70846
         317           1           3   232.74946   435.43436
         317           1           4   303.70997   568.18933
         317           1           5   328.86055   615.24176
         317           2           1   167.11088   312.63583
         317           2           2   188.82072   353.25121
         317           2           3   227.78207   426.14123
         317           2           4   300.41138   562.01822
         317           2           5   328.14872   613.91004
         317           3           1   166.93426   312.30540
         317           3           2   182.43374   341.30227
         317           3           3   223.78033   418.65466
         317           3           4   295.49065   552.81238
         317           3           5   326.90786   611.58860
         317           4           1   165.76048   310.10946
         317           4           2   179.90292   336.56755
         317           4           3   221.53105   414.44665
         317           4           4   284.63235   532.49836
         317           4           5   321.49686   601.46556
         317           5           1   162.89311   304.74510
         317           5           2   179.18044   335.21590
         317           5           3   220.35041   412.23788
         317           5           4   281.73195   527.07221
         317           5           5   318.27226   595.43287
         318           1           1   166.11823   310.77876
         318           1           2   199.06712   372.42047
         318           1           3   250.60694   468.84265
         318           1           4   308.92155   577.93929
         318           1           5   333.51405   623.94766
         318           2           1   165.13199   308.93366
         318           2           2   198.34185   371.06363
         318           2           3   247.36816   462.78346
         318           2           4   309.07392   578.22435
         318           2           5   333.23022   623.41666
         318           3           1   165.37781   309.39355
         318           3           2   198.00554   370.43445
         318           3           3   241.14210   451.13556
         318           3           4   305.21909   571.01263
         318           3           5   332.27114   621.62237
         318           4           1   164.97767   308.64497
         318           4           2   194.17984   363.27721
         318           4           3   236.15065   441.79741
         318           4           4   305.86200   572.21541
         318           4           5   329.70460   616.82083
         318           5           1   166.75032   311.96128
         318           5           2   191.73774   358.70846
         318           5           3   232.74946   435.43436
         318           5           4   303.70997   568.18933
         318           5           5   328.86055   615.24176
         319           1           1   172.54363   322.79957
         319           1           2   210.04446   392.95721
         319           1           3   262.95123   491.93671
         319           1           4   318.65846   596.15538
         319           1           5   331.21071   619.63850
         319           2           1   171.58629   321.00855
         319           2           2   207.82540   388.80572
         319           2           3   261.40030   489.03519
         319           2           4   317.11691   593.27142
         319           2           5   331.24197   619.69698
         319           3           1   169.29150   316.71540
         319           3           2   204.14957   381.92887
         319           3           3   254.87340   476.82448
         319           3           4   312.40286   584.45224
         319           3           5   331.75989   620.66592
         319           4           1   166.23664   311.00028
         319           4           2   200.80541   375.67252
         319           4           3   252.07618   471.59135
         319           4           4   309.37011   578.77848
         319           4           5   333.21760   623.39305
         319           5           1   166.11823   310.77876
         319           5           2   199.06712   372.42047
         319           5           3   250.60694   468.84265
         319           5           4   308.92155   577.93929
         319           5           5   333.51405   623.94766
         320           1           1   200.24952   374.63255
         320           1           2   231.25286   432.63449
         320           1           3   284.91028   533.01832
         320           1           4   325.67414   609.28052
         320           1           5   331.35911   619.91613
         320           2           1   195.63516   365.99987
         320           2           2   226.87351   424.44148
         320           2           3   280.89418   525.50488
         320           2           4   325.50773   608.96919
         320           2           5   331.37396   619.94391
         320           3           1   185.72747   347.46428
         320           3           2   218.32449   408.44772
         320           3           3   273.00104   510.73819
         320           3           4   325.16238   608.32312
         320           3           5   331.69671   620.54773
         320           4           1   176.51362   330.22675
         320           4           2   212.74838   398.01577
         320           4           3   266.05107   497.73597
         320           4           4   320.91480   600.37661
         320           4           5   331.13719   619.50095
         320           5           1   172.54363   322.79957
         320           5           2   210.04446   392.95721
         320           5           3   262.95123   491.93671
         320           5           4   318.65846   596.15538
         320           5           5   331.21071   619.63850
         321           1           1   223.90681   418.89128
         321           1           2   250.85093   469.29911
         321           1           3   304.63714   569.92390
         321           1           4   323.77213   605.72220
         321           1           5   333.23167   623.41936
         321           2           1   220.81437   413.10586
         321           2           2   247.86754   463.71771
         321           2           3   303.25290   567.33422
         321           2           4   324.48668   607.05899
         321           2           5   333.46927   623.86388
         321           3           1   213.68994   399.77727
         321           3           2   242.48378   453.64562
         321           3           3   297.26998   556.14121
         321           3           4   324.05400   606.24952
         321           3           5   333.79934   624.48138
         321           4           1   205.28033   384.04434
         321           4           2   235.20506   440.02838
         321           4           3   289.88835   542.33144
         321           4           4   324.82470   607.69137
         321           4           5   332.66857   622.36590
         321           5           1   200.24952   374.63255
         321           5           2   231.25286   432.63449
         321           5           3   284.91028   533.01832
         321           5           4   325.67414   609.28052
         321           5           5   331.35911   619.91613
         322           1           1   234.13559   438.02759
         322           1           2   263.02976   492.08363
         322           1           3   323.58873   605.37908
         322           1           4   325.49186   608.93950
         322           1           5   332.18424   621.45981
         322           2           1   232.24550   434.49154
         322           2           2   262.29013   490.69989
         322           2           3   321.34896   601.18886
         322           2           4   325.25195   608.49069
         322           2           5   332.61690   622.26924
         322           3           1   229.75705   429.83609
         322           3           2   260.70761   487.73928
         322           3           3   316.08025   591.33199
         322           3           4   326.64325   611.09356
         322           3           5   333.66440   624.22894
         322           4           1   225.54034   421.94735
         322           4           2   254.40728   475.95245
         322           4           3   306.91330   574.18221
         322           4           4   325.46121   608.88217
         322           4           5   332.94380   622.88082
         322           5           1   223.90681   418.89128
         322           5           2   250.85093   469.29911
         322           5           3   304.63714   569.92390
         322           5           4   323.77213   605.72220
         322           5           5   333.23167   623.41936
         323           1           1   241.64909   452.08404
         323           1           2   263.24725   492.49050
         323           1           3   324.14401   606.41791
         323           1           4   330.35231   618.03258
         323           1           5   324.23673   606.59138
         323           2           1   241.57052   451.93706
         323           2           2   262.43804   490.97662
         323           2           3   323.79237   605.76006
         323           2           4   329.46889   616.37985
         323           2           5   325.57466   609.09442
         323           3           1   237.82847   444.93632
         323           3           2   260.96792   488.22627
         323           3           3   324.85471   607.74752
         323           3           4   327.35874   612.43212
         323           3           5   328.42540   614.42766
         323           4           1   234.72735   439.13466
         323           4           2   262.27123   490.66454
         323           4           3   324.14119   606.41263
         323           4           4   326.08746   610.05377
         323           4           5   330.39996   618.12173
         323           5           1   234.13559   438.02759
         323           5           2   263.02976   492.08363
         323           5           3   323.58873   605.37908
         323           5           4   325.49186   608.93950
         323           5           5   332.18424   621.45981
         324           1           1   245.27665   458.87059
         324           1           2   267.31437   500.09939
         324           1           3   331.72204   620.59511
         324           1           4   331.41333   620.01757
         324           1           5   314.74794   588.83947
         324           2           1   246.22224   460.63962
         324           2           2   266.47905   498.53666
         324           2           3   330.85989   618.98217
         324           2           4   332.50109   622.05259
         324           2           5   315.93776   591.06543
         324           3           1   246.24366   460.67971
         324           3           2   264.95453   495.68454
         324           3           3   329.25987   615.98882
         324           3           4   329.92398   617.23126
         324           3           5   316.57480   592.25722
         324           4           1   243.46967   455.49005
         324           4           2   263.83466   493.58945
         324           4           3   326.11866   610.11214
         324           4           4   328.66339   614.87289
         324           4           5   321.23598   600.97748
         324           5           1   241.64909   452.08404
         324           5           2   263.24725   492.49050
         324           5           3   324.14401   606.41791
         324           5           4   330.35231   618.03258
         324           5           5   324.23673   606.59138
         325           1           1   221.22688   413.87760
         325           1           2   227.50170   425.61670
         325           1           3   219.65966   410.94559
         325           1           4   202.36534   378.59088
         325           1           5   173.06603   323.77689
         325           2           1   222.78265   416.78818
         325           2           2   230.38309   431.00730
         325           2           3   217.98273   407.80835
         325           2           4   204.22043   382.06143
         325           2           5   176.83703   330.83180
         325           3           1   222.02740   415.37523
         325           3           2   232.28488   434.56521
         325           3           3   216.10086   404.28769
         325           3           4   201.99564   377.89924
         325           3           5   178.67528   334.27083
         325           4           1   220.77858   413.03891
         325           4           2   232.65862   435.26442
         325           4           3   212.70119   397.92749
         325           4           4   199.36629   372.98018
         325           4           5   179.26231   335.36908
         325           5           1   219.92707   411.44587
         325           5           2   231.97397   433.98355
         325           5           3   212.12146   396.84292
         325           5           4   194.65925   364.17410
         325           5           5   176.49013   330.18279
         326           1           1   204.32061   382.24885
         326           1           2   210.18748   393.22478
         326           1           3   228.68289   427.82652
         326           1           4   198.74058   371.80959
         326           1           5   160.45159   300.17743
         326           2           1   206.28865   385.93072
         326           2           2   212.49478   397.54134
         326           2           3   228.01338   426.57398
         326           2           4   198.12300   370.65420
         326           2           5   161.10273   301.39562
         326           3           1   211.93971   396.50288
         326           3           2   219.02365   409.75573
         326           3           3   225.29934   421.49646
         326           3           4   197.18003   368.89006
         326           3           5   164.78077   308.27660
         326           4           1   218.98731   409.68773
         326           4           2   224.62031   420.22611
         326           4           3   221.97144   415.27054
         326           4           4   199.96483   374.09993
         326           4           5   170.11255   318.25144
         326           5           1   221.22688   413.87760
         326           5           2   227.50170   425.61670
         326           5           3   219.65966   410.94559
         326           5           4   202.36534   378.59088
         326           5           5   173.06603   323.77689
         327           1           1   190.68606   356.74095
         327           1           2   200.42017   374.95181
         327           1           3   225.43219   421.74501
         327           1           4   200.89962   375.84877
         327           1           5   168.20529   314.68328
         327           2           1   194.50281   363.88144
         327           2           2   202.60740   379.04374
         327           2           3   227.06517   424.80004
         327           2           4   198.97305   372.24449
         327           2           5   165.08525   308.84623
         327           3           1   198.13391   370.67461
         327           3           2   204.70530   382.96855
         327           3           3   226.66901   424.05888
         327           3           4   199.24144   372.74661
         327           3           5   162.58189   304.16287
         327           4           1   201.95015   377.81414
         327           4           2   207.83480   388.82331
         327           4           3   228.39591   427.28962
         327           4           4   199.26011   372.78153
         327           4           5   160.16322   299.63795
         327           5           1   204.32061   382.24885
         327           5           2   210.18748   393.22478
         327           5           3   228.68289   427.82652
         327           5           4   198.74058   371.80959
         327           5           5   160.45159   300.17743
         328           1           1   180.97595   338.57499
         328           1           2   195.50223   365.75117
         328           1           3   221.86778   415.07661
         328           1           4   198.10612   370.62261
         328           1           5   177.39043   331.86710
         328           2           1   183.52310   343.34027
         328           2           2   195.66807   366.06143
         328           2           3   221.18542   413.80003
         328           2           4   202.85485   379.50667
         328           2           5   174.66742   326.77283
         328           3           1   186.62742   349.14793
         328           3           2   196.67063   367.93705
         328           3           3   223.83569   418.75823
         328           3           4   200.16273   374.47017
         328           3           5   172.81874   323.31426
         328           4           1   188.74545   353.11040
         328           4           2   198.23294   370.85987
         328           4           3   224.52311   420.04427
         328           4           4   202.26004   378.39388
         328           4           5   170.85035   319.63174
         328           5           1   190.68606   356.74095
         328           5           2   200.42017   374.95181
         328           5           3   225.43219   421.74501
         328           5           4   200.89962   375.84877
         328           5           5   168.20529   314.68328
         329           1           1   179.72483   336.23436
         329           1           2   197.17114   368.87342
         329           1           3   222.03780   415.39469
         329           1           4   205.82158   385.05691
         329           1           5   186.97288   349.79422
         329           2           1   176.67471   330.52812
         329           2           2   196.17961   367.01845
         329           2           3   222.12096   415.55026
         329           2           4   204.37325   382.34734
         329           2           5   184.03587   344.29959
         329           3           1   180.23402   337.18698
         329           3           2   195.29795   365.36901
         329           3           3   224.75601   420.47999
         329           3           4   202.51034   378.86216
         329           3           5   182.88398   342.14459
         329           4           1   179.56331   335.93219
         329           4           2   195.33638   365.44091
         329           4           3   222.78276   416.78838
         329           4           4   200.71187   375.49753
         329           4           5   180.13479   337.00133
         329           5           1   180.97595   338.57499
         329           5           2   195.50223   365.75117
         329           5           3   221.86778   415.07661
         329           5           4   198.10612   370.62261
         329           5           5   177.39043   331.86710
         330           1           1   198.70917   371.75083
         330           1           2   222.19935   415.69691
         330           1           3   222.74596   416.71953
         330           1           4   210.20253   393.25292
         330           1           5   199.89751   373.97400
         330           2           1   195.51515   365.77535
         330           2           2   215.79454   403.71461
         330           2           3   224.50123   420.00335
         330           2           4   209.38876   391.73050
         330           2           5   198.17650   370.75428
         330           3           1   188.64605   352.92445
         330           3           2   205.21612   383.92420
         330           3           3   224.35165   419.72350
         330           3           4   206.10371   385.58473
         330           3           5   191.98119   359.16392
         330           4           1   182.46243   341.35594
         330           4           2   198.17329   370.74828
         330           4           3   221.90960   415.15485
         330           4           4   205.32904   384.13546
         330           4           5   188.11705   351.93478
         330           5           1   179.72483   336.23436
         330           5           2   197.17114   368.87342
         330           5           3   222.03780   415.39469
         330           5           4   205.82158   385.05691
         330           5           5   186.97288   349.79422
         331           1           1   211.77222   396.18954
         331           1           2   236.39052   442.24616
         331           1           3   224.81901   420.59786
         331           1           4   206.09928   385.57645
         331           1           5   202.26006   378.39392
         331           2           1   211.33750   395.37626
         331           2           2   238.09961   445.44357
         331           2           3   226.87070   424.43622
         331           2           4   208.57819   390.21406
         331           2           5   204.29789   382.20635
         331           3           1   208.27547   389.64773
         331           3           2   236.16665   441.82734
         331           3           3   224.75685   420.48156
         331           3           4   211.61243   395.89060
         331           3           5   203.86523   381.39691
         331           4           1   202.35741   378.57605
         331           4           2   228.60416   427.67921
         331           4           3   223.44819   418.03328
         331           4           4   211.11628   394.96239
         331           4           5   201.92056   377.75877
         331           5           1   198.70917   371.75083
         331           5           2   222.19935   415.69691
         331           5           3   222.74596   416.71953
         331           5           4   210.20253   393.25292
         331           5           5   199.89751   373.97400
         332           1           1   202.39344   378.64345
         332           1           2   228.67395   427.80979
         332           1           3   215.91734   403.94436
         332           1           4   192.59314   360.30878
         332           1           5   191.56098   358.37778
         332           2           1   204.31613   382.24047
         332           2           2   230.01708   430.32255
         332           2           3   218.30446   408.41025
         332           2           4   192.60640   360.33358
         332           2           5   196.27761   367.20179
         332           3           1   208.30920   389.71082
         332           3           2   231.73029   433.52767
         332           3           3   220.04001   411.65717
         332           3           4   198.22852   370.85161
         332           3           5   198.33699   371.05454
         332           4           1   210.78087   394.33489
         332           4           2   234.66624   439.02033
         332           4           3   223.35415   417.85735
         332           4           4   203.24495   380.23649
         332           4           5   201.21501   376.43881
         332           5           1   211.77222   396.18954
         332           5           2   236.39052   442.24616
         332           5           3   224.81901   420.59786
         332           5           4   206.09928   385.57645
         332           5           5   202.26006   378.39392
         333           1           1   198.46156   371.28759
         333           1           2   221.63262   414.63667
         333           1           3   198.32483   371.03177
         333           1           4   180.16451   337.05694
         333           1           5   173.24552   324.11269
         333           2           1   197.92134   370.27692
         333           2           2   222.93142   417.06649
         333           2           3   202.71268   379.24070
         333           2           4   182.52620   341.47524
         333           2           5   176.13823   329.52445
         333           3           1   200.19736   374.53497
         333           3           2   223.75533   418.60789
         333           3           3   209.64223   392.20470
         333           3           4   188.74761   353.11444
         333           3           5   182.62447   341.65910
         333           4           1   200.62289   375.33107
         333           4           2   227.30077   425.24080
         333           4           3   213.43678   399.30366
         333           4           4   191.72197   358.67897
         333           4           5   186.59599   349.08913
         333           5           1   202.39344   378.64345
         333           5           2   228.67395   427.80979
         333           5           3   215.91734   403.94436
         333           5           4   192.59314   360.30878
         333           5           5   191.56098   358.37778
         334           1           1   197.04177   368.63139
         334           1           2   208.00017   389.13269
         334           1           3   182.78852   341.96601
         334           1           4   171.85893   321.51862
         334           1           5   159.15377   297.74945
         334           2           1   193.93265   362.81476
         334           2           2   208.52954   390.12305
         334           2           3   183.77379   343.80928
         334           2           4   172.10411   321.97732
         334           2           5   161.55299   302.23798
         334           3           1   193.16458   361.37784
         334           3           2   215.42071   403.01524
         334           3           3   188.00349   351.72232
         334           3           4   174.52607   326.50837
         334           3           5   166.65679   311.78630
         334           4           1   198.73263   371.79471
         334           4           2   220.18355   411.92571
         334           4           3   193.83184   362.62617
         334           4           4   178.07145   333.14117
         334           4           5   170.42667   318.83911
         334           5           1   198.46156   371.28759
         334           5           2   221.63262   414.63667
         334           5           3   198.32483   371.03177
         334           5           4   180.16451   337.05694
         334           5           5   173.24552   324.11269
         335           1           1   198.46499   371.29400
         335           1           2   217.26354   406.46286
         335           1           3   173.64639   324.86265
         335           1           4   170.90181   319.72801
         335           1           5   159.49008   298.37862
         335           2           1   198.41794   371.20598
         335           2           2   214.35849   401.02801
         335           2           3   173.54647   324.67571
         335           2           4   172.36791   322.47083
         335           2           5   158.21944   296.00146
         335           3           1   198.61906   371.58224
         335           3           2   210.18801   393.22577
         335           3           3   177.10342   331.33016
         335           3           4   172.76403   323.21191
         335           3           5   158.41432   296.36606
         335           4           1   198.05175   370.52090
         335           4           2   208.20403   389.51408
         335           4           3   182.08618   340.65204
         335           4           4   171.89320   321.58273
         335           4           5   158.94266   297.35449
         335           5           1   197.04177   368.63139
         335           5           2   208.00017   389.13269
         335           5           3   182.78852   341.96601
         335           5           4   171.85893   321.51862
         335           5           5   159.15377   297.74945
         336           1           1   189.04869   353.67771
         336           1           2   227.69270   425.97404
         336           1           3   174.95746   327.31544
         336           1           4   153.65317   287.45876
         336           1           5   156.44617   292.68398
         336           2           1   190.91307   357.16565
         336           2           2   226.40239   423.56008
         336           2           3   174.22124   325.93809
         336           2           4   157.31442   294.30833
         336           2           5   156.07996   291.99887
         336           3           1   196.24413   367.13916
         336           3           2   223.73147   418.56325
         336           3           3   173.22205   324.06877
         336           3           4   163.37802   305.65229
         336           3           5   157.69137   295.01354
         336           4           1   198.66079   371.66030
         336           4           2   219.44840   410.55037
         336           4           3   174.29777   326.08128
         336           4           4   168.96245   316.09979
         336           4           5   159.20042   297.83671
         336           5           1   198.46499   371.29400
         336           5           2   217.26354   406.46286
         336           5           3   173.64639   324.86265
         336           5           4   170.90181   319.72801
         336           5           5   159.49008   298.37862
         337           1           1   171.17247   320.23437
         337           1           2   227.76327   426.10607
         337           1           3   169.18281   316.51206
         337           1           4   139.03066   260.10255
         337           1           5   152.81330   285.88751
         337           2           1   173.40710   324.41497
         337           2           2   230.09021   430.45938
         337           2           3   169.31256   316.75480
         337           2           4   142.14389   265.92688
         337           2           5   153.24826   286.70124
         337           3           1   178.92314   334.73455
         337           3           2   230.64251   431.49263
         337           3           3   171.63290   321.09576
         337           3           4   145.92593   273.00241
         337           3           5   153.41154   287.00671
         337           4           1   186.04821   348.06434
         337           4           2   228.93264   428.29376
         337           4           3   175.81302   328.91603
         337           4           4   150.16390   280.93093
         337           4           5   155.36470   290.66075
         337           5           1   189.04869   353.67771
         337           5           2   227.69270   425.97404
         337           5           3   174.95746   327.31544
         337           5           4   153.65317   287.45876
         337           5           5   156.44617   292.68398
         338           1           1   160.20530   299.71667
         338           1           2   207.92303   388.98837
         338           1           3   161.43023   302.00830
         338           1           4   129.58712   242.43529
         338           1           5   153.40416   286.99291
         338           2           1   161.60985   302.34434
         338           2           2   212.14170   396.88078
         338           2           3   162.19783   303.44436
         338           2           4   130.62303   244.37332
         338           2           5   152.20995   284.75874
         338           3           1   164.43186   307.62384
         338           3           2   218.90217   409.52846
         338           3           3   164.04841   306.90647
         338           3           4   134.59296   251.80036
         338           3           5   149.07002   278.88447
         338           4           1   169.70495   317.48889
         338           4           2   224.79234   420.54795
         338           4           3   167.91474   314.13972
         338           4           4   137.22695   256.72812
         338           4           5   151.70711   283.81802
         338           5           1   171.17247   320.23437
         338           5           2   227.76327   426.10607
         338           5           3   169.18281   316.51206
         338           5           4   139.03066   260.10255
         338           5           5   152.81330   285.88751
         339           1           1   148.77869   278.33945
         339           1           2   177.55879   332.18208
         339           1           3   153.01230   286.25981
         339           1           4   129.79457   242.82341
         339           1           5   156.77793   293.30465
         339           2           1   149.38979   279.48270
         339           2           2   182.65635   341.71874
         339           2           3   153.17360   286.56157
         339           2           4   130.12926   243.44955
         339           2           5   156.07209   291.98414
         339           3           1   155.16508   290.28728
         339           3           2   192.59951   360.32069
         339           3           3   156.20888   292.24005
         339           3           4   129.92650   243.07023
         339           3           5   155.27715   290.49695
         339           4           1   159.16662   297.77347
         339           4           2   203.24153   380.23008
         339           4           3   160.68679   300.61746
         339           4           4   129.20857   241.72711
         339           4           5   153.88749   287.89712
         339           5           1   160.20530   299.71667
         339           5           2   207.92303   388.98837
         339           5           3   161.43023   302.00830
         339           5           4   129.58712   242.43529
         339           5           5   153.40416   286.99291
         340           1           1   155.86983   291.60575
         340           1           2   157.24514   294.17872
         340           1           3   147.15969   275.31058
         340           1           4   131.58373   246.17062
         340           1           5   162.89311   304.74510
         340           2           1   153.77291   287.68277
         340           2           2   159.22116   297.87551
         340           2           3   148.85842   278.48860
         340           2           4   129.79782   242.82948
         340           2           5   160.40556   300.09132
         340           3           1   148.97071   278.69868
         340           3           2   164.13096   307.06092
         340           3           3   151.41334   283.26842
         340           3           4   127.27127   238.10275
         340           3           5   158.37545   296.29333
         340           4           1   149.54354   279.77034
         340           4           2   172.59408   322.89396
         340           4           3   152.71692   285.70719
         340           4           4   129.21882   241.74628
         340           4           5   157.02091   293.75922
         340           5           1   148.77869   278.33945
         340           5           2   177.55879   332.18208
         340           5           3   153.01230   286.25981
         340           5           4   129.79457   242.82341
         340           5           5   156.77793   293.30465
         341           1           1   157.98662   295.56590
         341           1           2   144.08025   269.54947
         341           1           3   139.87044   261.67364
         341           1           4   142.35127   266.31484
         341           1           5   166.75032   311.96128
         341           2           1   157.63174   294.90199
         341           2           2   146.69394   274.43923
         341           2           3   142.11498   265.87279
         341           2           4   139.30018   260.60677
         341           2           5   167.11088   312.63583
         341           3           1   156.61744   293.00440
         341           3           2   152.64844   285.57909
         341           3           3   143.98245   269.36649
         341           3           4   136.78306   255.89768
         341           3           5   166.93426   312.30540
         341           4           1   156.36132   292.52524
         341           4           2   155.96717   291.78786
         341           4           3   146.04717   273.22923
         341           4           4   133.39263   249.55476
         341           4           5   165.76048   310.10946
         341           5           1   155.86983   291.60575
         341           5           2   157.24514   294.17872
         341           5           3   147.15969   275.31058
         341           5           4   131.58373   246.17062
         341           5           5   162.89311   304.74510
         342           1           1   171.24781   320.37532
         342           1           2   148.78892   278.35858
         342           1           3   127.96297   239.39679
         342           1           4   152.64992   285.58185
         342           1           5   166.11823   310.77876
         342           2           1   169.39257   316.90447
         342           2           2   145.51628   272.23603
         342           2           3   127.62997   238.77380
         342           2           4   151.30234   283.06076
         342           2           5   165.13199   308.93366
         342           3           1   165.38443   309.40593
         342           3           2   141.44847   264.62586
         342           3           3   130.90058   244.89256
         342           3           4   150.08484   280.78303
         342           3           5   165.37781   309.39355
         342           4           1   158.42338   296.38301
         342           4           2   142.70961   266.98524
         342           4           3   135.43017   253.36664
         342           4           4   146.35154   273.79867
         342           4           5   164.97767   308.64497
         342           5           1   157.98662   295.56590
         342           5           2   144.08025   269.54947
         342           5           3   139.87044   261.67364
         342           5           4   142.35127   266.31484
         342           5           5   166.75032   311.96128
         343           1           1   201.56070   377.08554
         343           1           2   185.22234   346.51927
         343           1           3   141.28882   264.32718
         343           1           4   167.36513   313.11149
         343           1           5   172.54363   322.79957
         343           2           1   195.98283   366.65030
         343           2           2   178.84966   334.59708
         343           2           3   138.03931   258.24791
         343           2           4   164.38822   307.54219
         343           2           5   171.58629   321.00855
         343           3           1   184.73169   345.60134
         343           3           2   164.32806   307.42965
         343           3           3   130.86180   244.82001
         343           3           4   157.16925   294.03675
         343           3           5   169.29150   316.71540
         343           4           1   175.27295   327.90567
         343           4           2   153.86854   287.86168
         343           4           3   128.34884   240.11869
         343           4           4   154.74377   289.49909
         343           4           5   166.23664   311.00028
         343           5           1   171.24781   320.37532
         343           5           2   148.78892   278.35858
         343           5           3   127.96297   239.39679
         343           5           4   152.64992   285.58185
         343           5           5   166.11823   310.77876
         344           1           1   247.33977   462.73033
         344           1           2   215.78400   403.69491
         344           1           3   176.01543   329.29472
         344           1           4   185.90386   347.79428
         344           1           5   200.24952   374.63255
         344           2           1   240.41482   449.77493
         344           2           2   211.79564   396.23335
         344           2           3   169.09125   316.34077
         344           2           4   182.88383   342.14433
         344           2           5   195.63516   365.99987
         344           3           1   227.00984   424.69653
         344           3           2   203.43135   380.58521
         344           3           3   158.21047   295.98469
         344           3           4   176.35802   329.93565
         344           3           5   185.72747   347.46428
         344           4           1   210.40040   393.62311
         344           4           2   191.67110   358.58379
         344           4           3   146.98628   274.98616
         344           4           4   170.34088   318.67861
         344           4           5   176.51362   330.22675
         344           5           1   201.56070   377.08554
         344           5           2   185.22234   346.51927
         344           5           3   141.28882   264.32718
         344           5           4   167.36513   313.11149
         344           5           5   172.54363   322.79957
         345           1           1   274.89300   514.27772
         345           1           2   252.85912   473.05609
         345           1           3   205.76934   384.95918
         345           1           4   204.28594   382.18399
         345           1           5   223.90681   418.89128
         345           2           1   269.72846   504.61573
         345           2           2   246.00350   460.23041
         345           2           3   200.33600   374.79434
         345           2           4   200.44625   375.00059
         345           2           5   220.81437   413.10586
         345           3           1   262.86554   491.77640
         345           3           2   232.79593   435.52130
         345           3           3   190.52011   356.43048
         345           3           4   193.59388   362.18099
         345           3           5   213.68994   399.77727
         345           4           1   252.64772   472.66061
         345           4           2   221.47914   414.34953
         345           4           3   180.90578   338.44372
         345           4           4   188.80220   353.21657
         345           4           5   205.28033   384.04434
         345           5           1   247.33977   462.73033
         345           5           2   215.78400   403.69491
         345           5           3   176.01543   329.29472
         345           5           4   185.90386   347.79428
         345           5           5   200.24952   374.63255
         346           1           1   282.21733   527.98028
         346           1           2   282.86058   529.18369
         346           1           3   230.37066   430.98404
         346           1           4   217.33252   406.59192
         346           1           5   234.13559   438.02759
         346           2           1   279.73732   523.34061
         346           2           2   278.76969   521.53033
         346           2           3   225.66529   422.18110
         346           2           4   214.76521   401.78892
         346           2           5   232.24550   434.49154
         346           3           1   278.26653   520.58902
         346           3           2   271.33855   507.62794
         346           3           3   219.92577   411.44345
         346           3           4   212.50099   397.55294
         346           3           5   229.75705   429.83609
         346           4           1   279.59046   523.06585
         346           4           2   259.15457   484.83381
         346           4           3   211.55210   395.77775
         346           4           4   208.10720   389.33291
         346           4           5   225.54034   421.94735
         346           5           1   274.89300   514.27772
         346           5           2   252.85912   473.05609
         346           5           3   205.76934   384.95918
         346           5           4   204.28594   382.18399
         346           5           5   223.90681   418.89128
         347           1           1   294.03823   550.09516
         347           1           2   289.33868   541.30310
         347           1           3   246.52052   461.19767
         347           1           4   223.08284   417.34977
         347           1           5   241.64909   452.08404
         347           2           1   293.48419   549.05865
         347           2           2   288.25497   539.27568
         347           2           3   244.92093   458.20509
         347           2           4   222.04660   415.41116
         347           2           5   241.57052   451.93706
         347           3           1   287.19794   537.29815
         347           3           2   286.30547   535.62848
         347           3           3   240.84568   450.58102
         347           3           4   219.31174   410.29470
         347           3           5   237.82847   444.93632
         347           4           1   283.53320   530.44204
         347           4           2   284.13198   531.56226
         347           4           3   233.85402   437.50081
         347           4           4   218.84764   409.42644
         347           4           5   234.72735   439.13466
         347           5           1   282.21733   527.98028
         347           5           2   282.86058   529.18369
         347           5           3   230.37066   430.98404
         347           5           4   217.33252   406.59192
         347           5           5   234.13559   438.02759
         348           1           1   303.04203   566.93972
         348           1           2   291.78405   545.87798
         348           1           3   250.95549   469.49474
         348           1           4   235.66501   440.88886
         348           1           5   245.27665   458.87059
         348           2           1   302.15495   565.28016
         348           2           2   290.50533   543.48570
         348           2           3   250.31537   468.29717
         348           2           4   233.83662   437.46826
         348           2           5   246.22224   460.63962
         348           3           1   302.37426   565.69044
         348           3           2   287.80394   538.43187
         348           3           3   248.59295   465.07482
         348           3           4   231.46486   433.03111
         348           3           5   246.24366   460.67971
         348           4           1   296.10267   553.95738
         348           4           2   288.49811   539.73054
         348           4           3   246.18736   460.57438
         348           4           4   227.41226   425.44939
         348           4           5   243.46967   455.49005
         348           5           1   294.03823   550.09516
         348           5           2   289.33868   541.30310
         348           5           3   246.52052   461.19767
         348           5           4   223.08284   417.34977
         348           5           5   241.64909   452.08404
         349           1           1   221.38992   414.18261
         349           1           2   204.37910   382.35828
         349           1           3   173.03304   323.71518
         349           1           4   198.63559   371.61317
         349           1           5   221.22688   413.87760
         349           2           1   218.74670   409.23761
         349           2           2   200.41412   374.94048
         349           2           3   171.58567   321.00739
         349           2           4   200.26126   374.65450
         349           2           5   222.78265   416.78818
         349           3           1   212.32874   397.23070
         349           3           2   191.51967   358.30049
         349           3           3   170.79114   319.52096
         349           3           4   201.14452   376.30694
         349           3           5   222.02740   415.37523
         349           4           1   202.51340   378.86787
         349           4           2   184.66378   345.47430
         349           4           3   170.87414   319.67624
         349           4           4   201.40962   376.80290
         349           4           5   220.77858   413.03891
         349           5           1   196.99826   368.54999
         349           5           2   181.61588   339.77220
         349           5           3   171.98556   321.75553
         349           5           4   202.47140   378.78931
         349           5           5   219.92707   411.44587
         350           1           1   247.86335   463.70987
         350           1           2   230.17021   430.60903
         350           1           3   186.61972   349.13353
         350           1           4   197.34784   369.20400
         350           1           5   204.32061   382.24885
         350           2           1   245.11997   458.57747
         350           2           2   224.66705   420.31356
         350           2           3   184.30048   344.79463
         350           2           4   197.66301   369.79363
         350           2           5   206.28865   385.93072
         350           3           1   237.02731   443.43750
         350           3           2   215.36685   402.91448
         350           3           3   179.36955   335.56970
         350           3           4   197.68626   369.83713
         350           3           5   211.93971   396.50288
         350           4           1   225.96544   422.74262
         350           4           2   208.32445   389.73935
         350           4           3   174.25599   326.00310
         350           4           4   197.52455   369.53460
         350           4           5   218.98731   409.68773
         350           5           1   221.38992   414.18261
         350           5           2   204.37910   382.35828
         350           5           3   173.03304   323.71518
         350           5           4   198.63559   371.61317
         350           5           5   221.22688   413.87760
         351           1           1   258.94975   484.45062
         351           1           2   248.26473   464.46077
         351           1           3   184.70406   345.54966
         351           1           4   189.55750   354.62961
         351           1           5   190.68606   356.74095
         351           2           1   259.82012   486.07893
         351           2           2   247.42679   462.89314
         351           2           3   186.39140   348.70637
         351           2           4   190.68258   356.73445
         351           2           5   194.50281   363.88144
         351           3           1   257.18852   481.15567
         351           3           2   241.82920   452.42101
         351           3           3   189.52105   354.56141
         351           3           4   193.61180   362.21451
         351           3           5   198.13391   370.67461
         351           4           1   252.65796   472.67977
         351           4           2   235.67336   440.90449
         351           4           3   188.22151   352.13020
         351           4           4   196.77917   368.14011
         351           4           5   201.95015   377.81414
         351           5           1   247.86335   463.70987
         351           5           2   230.17021   430.60903
         351           5           3   186.61972   349.13353
         351           5           4   197.34784   369.20400
         351           5           5   204.32061   382.24885
         352           1           1   256.62504   480.10149
         352           1           2   243.99097   456.46531
         352           1           3   183.25971   342.84753
         352           1           4   172.03603   321.84994
         352           1           5   180.97595   338.57499
         352           2           1   255.70988   478.38938
         352           2           2   247.62948   463.27234
         352           2           3   183.85438   343.96005
         352           2           4   175.14872   327.67326
         352           2           5   183.52310   343.34027
         352           3           1   255.63603   478.25121
         352           3           2   249.80024   467.33345
         352           3           3   185.34655   346.75164
         352           3           4   181.34716   339.26947
         352           3           5   186.62742   349.14793
         352           4           1   258.27314   483.18481
         352           4           2   249.74704   467.23392
         352           4           3   184.54950   345.26050
         352           4           4   186.15972   348.27294
         352           4           5   188.74545   353.11040
         352           5           1   258.94975   484.45062
         352           5           2   248.26473   464.46077
         352           5           3   184.70406   345.54966
         352           5           4   189.55750   354.62961
         352           5           5   190.68606   356.74095
         353           1           1   243.77026   456.05240
         353           1           2   218.61314   408.98774
         353           1           3   173.59793   324.77199
         353           1           4   163.62639   306.11694
         353           1           5   179.72483   336.23436
         353           2           1   245.19801   458.72347
         353           2           2   223.23368   417.63197
         353           2           3   174.96309   327.32597
         353           2           4   162.46160   303.93782
         353           2           5   176.67471   330.52812
         353           3           1   251.88485   471.23340
         353           3           2   230.50417   431.23381
         353           3           3   175.54286   328.41063
         353           3           4   166.82564   312.10219
         353           3           5   180.23402   337.18698
         353           4           1   254.72660   476.54983
         353           4           2   239.43506   447.94198
         353           4           3   180.68012   338.02156
         353           4           4   170.46765   318.91576
         353           4           5   179.56331   335.93219
         353           5           1   256.62504   480.10149
         353           5           2   243.99097   456.46531
         353           5           3   183.25971   342.84753
         353           5           4   172.03603   321.84994
         353           5           5   180.97595   338.57499
         354           1           1   238.70469   446.57559
         354           1           2   205.57411   384.59394
         354           1           3   153.17950   286.57259
         354           1           4   174.20735   325.91211
         354           1           5   198.70917   371.75083
         354           2           1   241.44896   451.70965
         354           2           2   205.38014   384.23106
         354           2           3   154.85779   289.71239
         354           2           4   174.89817   327.20452
         354           2           5   195.51515   365.77535
         354           3           1   240.42213   449.78861
         354           3           2   207.72194   388.61216
         354           3           3   162.44689   303.91030
         354           3           4   170.89805   319.72098
         354           3           5   188.64605   352.92445
         354           4           1   243.22691   455.03588
         354           4           2   213.30951   399.06556
         354           4           3   171.36383   320.59238
         354           4           4   166.00651   310.56975
         354           4           5   182.46243   341.35594
         354           5           1   243.77026   456.05240
         354           5           2   218.61314   408.98774
         354           5           3   173.59793   324.77199
         354           5           4   163.62639   306.11694
         354           5           5   179.72483   336.23436
         355           1           1   232.78854   435.50747
         355           1           2   213.79326   399.97056
         355           1           3   151.41963   283.28019
         355           1           4   171.85279   321.50713
         355           1           5   211.77222   396.18954
         355           2           1   231.97644   433.98818
         355           2           2   214.08004   400.50709
         355           2           3   150.88434   282.27876
         355           2           4   171.14407   320.18123
         355           2           5   211.33750   395.37626
         355           3           1   233.52727   436.88952
         355           3           2   210.84573   394.45625
         355           3           3   150.45593   281.47726
         355           3           4   172.89839   323.46327
         355           3           5   208.27547   389.64773
         355           4           1   236.66337   442.75662
         355           4           2   207.11735   387.48109
         355           4           3   151.67778   283.76314
         355           4           4   173.54403   324.67115
         355           4           5   202.35741   378.57605
         355           5           1   238.70469   446.57559
         355           5           2   205.57411   384.59394
         355           5           3   153.17950   286.57259
         355           5           4   174.20735   325.91211
         355           5           5   198.70917   371.75083
         356           1           1   239.46194   447.99227
         356           1           2   217.19229   406.32957
         356           1           3   153.21579   286.64049
         356           1           4   167.33655   313.05802
         356           1           5   202.39344   378.64345
         356           2           1   238.21639   445.66206
         356           2           2   216.37733   404.80491
         356           2           3   153.22011   286.64858
         356           2           4   167.61708   313.58284
         356           2           5   204.31613   382.24047
         356           3           1   234.78883   439.24968
         356           3           2   213.07816   398.63273
         356           3           3   153.02723   286.28773
         356           3           4   169.21669   316.57544
         356           3           5   208.30920   389.71082
         356           4           1   233.85033   437.49390
         356           4           2   213.50272   399.42701
         356           4           3   151.95802   284.28742
         356           4           4   170.65361   319.26366
         356           4           5   210.78087   394.33489
         356           5           1   232.78854   435.50747
         356           5           2   213.79326   399.97056
         356           5           3   151.41963   283.28019
         356           5           4   171.85279   321.50713
         356           5           5   211.77222   396.18954
         357           1           1   239.32820   447.74206
         357           1           2   227.22854   425.10568
         357           1           3   151.55116   283.52627
         357           1           4   170.11650   318.25882
         357           1           5   198.46156   371.28759
         357           2           1   239.54831   448.15386
         357           2           2   226.37145   423.50221
         357           2           3   152.76997   285.80645
         357           2           4   168.32165   314.90097
         357           2           5   197.92134   370.27692
         357           3           1   237.73513   444.76170
         357           3           2   222.04365   415.40564
         357           3           3   153.62728   287.41032
         357           3           4   166.61640   311.71075
         357           3           5   200.19736   374.53497
         357           4           1   239.53704   448.13277
         357           4           2   217.94395   407.73579
         357           4           3   153.58035   287.32252
         357           4           4   166.72146   311.90730
         357           4           5   200.62289   375.33107
         357           5           1   239.46194   447.99227
         357           5           2   217.19229   406.32957
         357           5           3   153.21579   286.64049
         357           5           4   167.33655   313.05802
         357           5           5   202.39344   378.64345
         358           1           1   243.02635   454.66066
         358           1           2   221.93440   415.20125
         358           1           3   158.81113   297.10841
         358           1           4   178.76191   334.43291
         358           1           5   197.04177   368.63139
         358           2           1   242.32723   453.35274
         358           2           2   221.39330   414.18894
         358           2           3   160.03083   299.39027
         358           2           4   178.91096   334.71176
         358           2           5   193.93265   362.81476
         358           3           1   240.74943   450.40094
         358           3           2   224.61537   420.21688
         358           3           3   154.78140   289.56948
         358           3           4   175.63720   328.58711
         358           3           5   193.16458   361.37784
         358           4           1   239.14289   447.39538
         358           4           2   226.68880   424.09590
         358           4           3   151.61270   283.64138
         358           4           4   171.86744   321.53454
         358           4           5   198.73263   371.79471
         358           5           1   239.32820   447.74206
         358           5           2   227.22854   425.10568
         358           5           3   151.55116   283.52627
         358           5           4   170.11650   318.25882
         358           5           5   198.46156   371.28759
         359           1           1   244.54415   457.50021
         359           1           2   227.21989   425.08949
         359           1           3   162.03335   303.13663
         359           1           4   170.43827   318.86081
         359           1           5   198.46499   371.29400
         359           2           1   244.58928   457.58463
         359           2           2   225.91865   422.65509
         359           2           3   158.83268   297.14874
         359           2           4   170.70376   319.35749
         359           2           5   198.41794   371.20598
         359           3           1   245.06544   458.47546
         359           3           2   224.36860   419.75522
         359           3           3   158.11837   295.81238
         359           3           4   174.48591   326.43325
         359           3           5   198.61906   371.58224
         359           4           1   243.71896   455.95642
         359           4           2   222.91218   417.03050
         359           4           3   157.41688   294.50001
         359           4           4   177.68779   332.42341
         359           4           5   198.05175   370.52090
         359           5           1   243.02635   454.66066
         359           5           2   221.93440   415.20125
         359           5           3   158.81113   297.10841
         359           5           4   178.76191   334.43291
         359           5           5   197.04177   368.63139
         360           1           1   252.99934   473.31842
         360           1           2   235.58228   440.73410
         360           1           3   187.76753   351.28089
         360           1           4   166.05000   310.65110
         360           1           5   189.04869   353.67771
         360           2           1   251.59746   470.69574
         360           2           2   234.53349   438.77198
         360           2           3   183.37765   343.06818
         360           2           4   168.21774   314.70657
         360           2           5   190.91307   357.16565
         360           3           1   247.42391   462.88774
         360           3           2   232.40534   434.79058
         360           3           3   171.03357   319.97452
         360           3           4   170.49399   318.96505
         360           3           5   196.24413   367.13916
         360           4           1   245.25771   458.83517
         360           4           2   228.67344   427.80884
         360           4           3   165.60641   309.82123
         360           4           4   170.32895   318.65629
         360           4           5   198.66079   371.66030
         360           5           1   244.54415   457.50021
         360           5           2   227.21989   425.08949
         360           5           3   162.03335   303.13663
         360           5           4   170.43827   318.86081
         360           5           5   198.46499   371.29400
         361           1           1   250.39951   468.45459
         361           1           2   240.97518   450.82327
         361           1           3   208.52538   390.11526
         361           1           4   152.87412   286.00129
         361           1           5   171.17247   320.23437
         361           2           1   252.35921   472.12085
         361           2           2   240.72352   450.35247
         361           2           3   204.21624   382.05361
         361           2           4   155.06008   290.09085
         361           2           5   173.40710   324.41497
         361           3           1   254.73057   476.55726
         361           3           2   239.99268   448.98519
         361           3           3   196.56223   367.73425
         361           3           4   160.35449   299.99578
         361           3           5   178.92314   334.73455
         361           4           1   253.67745   474.58706
         361           4           2   236.59972   442.63755
         361           4           3   190.86981   357.08472
         361           4           4   163.54177   305.95863
         361           4           5   186.04821   348.06434
         361           5           1   252.99934   473.31842
         361           5           2   235.58228   440.73410
         361           5           3   187.76753   351.28089
         361           5           4   166.05000   310.65110
         361           5           5   189.04869   353.67771
         362           1           1   243.65706   455.84061
         362           1           2   234.34560   438.42048
         362           1           3   226.91585   424.52068
         362           1           4   148.39097   277.61408
         362           1           5   160.20530   299.71667
         362           2           1   244.66919   457.73413
         362           2           2   236.71648   442.85598
         362           2           3   223.79197   418.67644
         362           2           4   148.97991   278.71588
         362           2           5   161.60985   302.34434
         362           3           1   246.30846   460.80093
         362           3           2   241.58104   451.95674
         362           3           3   219.10460   409.90717
         362           3           4   150.57203   281.69448
         362           3           5   164.43186   307.62384
         362           4           1   248.28984   464.50775
         362           4           2   241.15266   451.15531
         362           4           3   212.53175   397.61050
         362           4           4   151.09287   282.66887
         362           4           5   169.70495   317.48889
         362           5           1   250.39951   468.45459
         362           5           2   240.97518   450.82327
         362           5           3   208.52538   390.11526
         362           5           4   152.87412   286.00129
         362           5           5   171.17247   320.23437
         363           1           1   244.23627   456.92422
         363           1           2   223.03897   417.26771
         363           1           3   235.84234   441.22062
         363           1           4   142.08940   265.82492
         363           1           5   148.77869   278.33945
         363           2           1   242.95980   454.53617
         363           2           2   223.59320   418.30457
         363           2           3   235.48713   440.55607
         363           2           4   142.11811   265.87863
         363           2           5   149.38979   279.48270
         363           3           1   242.14337   453.00877
         363           3           2   225.74887   422.33746
         363           3           3   234.30942   438.35279
         363           3           4   145.66027   272.50542
         363           3           5   155.16508   290.28728
         363           4           1   243.14544   454.88347
         363           4           2   231.39197   432.89474
         363           4           3   230.34591   430.93774
         363           4           4   148.20773   277.27127
         363           4           5   159.16662   297.77347
         363           5           1   243.65706   455.84061
         363           5           2   234.34560   438.42048
         363           5           3   226.91585   424.52068
         363           5           4   148.39097   277.61408
         363           5           5   160.20530   299.71667
         364           1           1   247.13483   462.34693
         364           1           2   233.05908   436.01361
         364           1           3   232.41158   434.80226
         364           1           4   156.92543   293.58059
         364           1           5   155.86983   291.60575
         364           2           1   245.64330   459.55653
         364           2           2   230.49749   431.22132
         364           2           3   232.14399   434.30163
         364           2           4   152.50482   285.31040
         364           2           5   153.77291   287.68277
         364           3           1   244.77520   457.93246
         364           3           2   224.91622   420.77972
         364           3           3   233.78268   437.36735
         364           3           4   145.73668   272.64836
         364           3           5   148.97071   278.69868
         364           4           1   245.47226   459.23654
         364           4           2   222.95553   417.11160
         364           4           3   235.25613   440.12391
         364           4           4   143.05053   267.62304
         364           4           5   149.54354   279.77034
         364           5           1   244.23627   456.92422
         364           5           2   223.03897   417.26771
         364           5           3   235.84234   441.22062
         364           5           4   142.08940   265.82492
         364           5           5   148.77869   278.33945
         365           1           1   261.39919   489.03310
         365           1           2   237.74235   444.77521
         365           1           3   234.89940   439.45655
         365           1           4   174.62226   326.68833
         365           1           5   157.98662   295.56590
         365           2           1   260.27008   486.92073
         365           2           2   236.19286   441.87637
         365           2           3   233.34663   436.55157
         365           2           4   172.48473   322.68939
         365           2           5   157.63174   294.90199
         365           3           1   256.85528   480.53223
         365           3           2   236.58758   442.61483
         365           3           3   232.98490   435.87484
         365           3           4   168.04738   314.38786
         365           3           5   156.61744   293.00440
         365           4           1   249.61866   466.99374
         365           4           2   235.12673   439.88183
         365           4           3   233.15697   436.19675
         365           4           4   161.07412   301.34209
         365           4           5   156.36132   292.52524
         365           5           1   247.13483   462.34693
         365           5           2   233.05908   436.01361
         365           5           3   232.41158   434.80226
         365           5           4   156.92543   293.58059
         365           5           5   155.86983   291.60575
         366           1           1   251.68068   470.85144
         366           1           2   251.48725   470.48957
         366           1           3   242.65055   453.95762
         366           1           4   197.63470   369.74066
         366           1           5   171.24781   320.37532
         366           2           1   254.00665   475.20292
         366           2           2   250.76905   469.14593
         366           2           3   239.07478   447.26796
         366           2           4   192.34197   359.83887
         366           2           5   169.39257   316.90447
         366           3           1   256.98191   480.76914
         366           3           2   247.34761   462.74501
         366           3           3   236.31406   442.10312
         366           3           4   184.51786   345.20131
         366           3           5   165.38443   309.40593
         366           4           1   260.94544   488.18422
         366           4           2   241.22880   451.29776
         366           4           3   236.12392   441.74740
         366           4           4   177.33657   331.76635
         366           4           5   158.42338   296.38301
         366           5           1   261.39919   489.03310
         366           5           2   237.74235   444.77521
         366           5           3   234.89940   439.45655
         366           5           4   174.62226   326.68833
         366           5           5   157.98662   295.56590
         367           1           1   238.39480   445.99583
         367           1           2   248.27260   464.47551
         367           1           3   247.71167   463.42610
         367           1           4   229.80407   429.92405
         367           1           5   201.56070   377.08554
         367           2           1   240.34714   449.64833
         367           2           2   246.64089   461.42285
         367           2           3   249.04095   465.91295
         367           2           4   223.46662   418.06777
         367           2           5   195.98283   366.65030
         367           3           1   245.23706   458.79653
         367           3           2   248.25644   464.44528
         367           3           3   247.64541   463.30215
         367           3           4   212.06500   396.73729
         367           3           5   184.73169   345.60134
         367           4           1   248.25490   464.44240
         367           4           2   250.04149   467.78479
         367           4           3   245.45232   459.19925
         367           4           4   203.30065   380.34068
         367           4           5   175.27295   327.90567
         367           5           1   251.68068   470.85144
         367           5           2   251.48725   470.48957
         367           5           3   242.65055   453.95762
         367           5           4   197.63470   369.74066
         367           5           5   171.24781   320.37532
         368           1           1   249.83251   467.39383
         368           1           2   260.52215   487.39231
         368           1           3   256.95264   480.71437
         368           1           4   252.08365   471.60532
         368           1           5   247.33977   462.73033
         368           2           1   246.95277   462.00632
         368           2           2   257.85177   482.39650
         368           2           3   254.07505   475.33090
         368           2           4   248.06935   464.09526
         368           2           5   240.41482   449.77493
         368           3           1   241.77427   452.31825
         368           3           2   252.86949   473.07551
         368           3           3   249.58642   466.93343
         368           3           4   242.66341   453.98166
         368           3           5   227.00984   424.69653
         368           4           1   238.64490   446.46372
         368           4           2   249.98645   467.68183
         368           4           3   246.28778   460.76225
         368           4           4   234.44376   438.60411
         368           4           5   210.40040   393.62311
         368           5           1   238.39480   445.99583
         368           5           2   248.27260   464.47551
         368           5           3   247.71167   463.42610
         368           5           4   229.80407   429.92405
         368           5           5   201.56070   377.08554
         369           1           1   276.55079   517.37915
         369           1           2   275.58486   515.57206
         369           1           3   271.33675   507.62457
         369           1           4   275.53948   515.48717
         369           1           5   274.89300   514.27772
         369           2           1   272.13888   509.12522
         369           2           2   273.40880   511.50103
         369           2           3   271.77554   508.44548
         369           2           4   271.47184   507.87731
         369           2           5   269.72846   504.61573
         369           3           1   265.43265   496.57902
         369           3           2   269.16207   503.55613
         369           3           3   266.81993   499.17437
         369           3           4   262.85864   491.76349
         369           3           5   262.86554   491.77640
         369           4           1   253.74612   474.71552
         369           4           2   262.88330   491.80962
         369           4           3   258.52243   483.65118
         369           4           4   256.96056   480.72918
         369           4           5   252.64772   472.66061
         369           5           1   249.83251   467.39383
         369           5           2   260.52215   487.39231
         369           5           3   256.95264   480.71437
         369           5           4   252.08365   471.60532
         369           5           5   247.33977   462.73033
         370           1           1   288.20735   539.18658
         370           1           2   291.01336   544.43615
         370           1           3   283.93712   531.19771
         370           1           4   280.96123   525.63033
         370           1           5   282.21733   527.98028
         370           2           1   287.63884   538.12300
         370           2           2   288.84794   540.38501
         370           2           3   282.78815   529.04819
         370           2           4   280.73823   525.21313
         370           2           5   279.73732   523.34061
         370           3           1   285.89275   534.85635
         370           3           2   287.60472   538.05917
         370           3           3   280.03595   523.89928
         370           3           4   279.71525   523.29932
         370           3           5   278.26653   520.58902
         370           4           1   280.55201   524.86475
         370           4           2   279.64886   523.17512
         370           4           3   273.49270   511.65799
         370           4           4   276.92897   518.08666
         370           4           5   279.59046   523.06585
         370           5           1   276.55079   517.37915
         370           5           2   275.58486   515.57206
         370           5           3   271.33675   507.62457
         370           5           4   275.53948   515.48717
         370           5           5   274.89300   514.27772
         371           1           1   281.02115   525.74243
         371           1           2   292.03431   546.34616
         371           1           3   289.39419   541.40696
         371           1           4   290.59445   543.65243
         371           1           5   294.03823   550.09516
         371           2           1   281.45377   526.55178
         371           2           2   291.20657   544.79761
         371           2           3   290.36276   543.21898
         371           2           4   291.07606   544.55345
         371           2           5   293.48419   549.05865
         371           3           1   284.65339   532.53773
         371           3           2   287.86653   538.54896
         371           3           3   286.96064   536.85421
         371           3           4   283.04675   529.53198
         371           3           5   287.19794   537.29815
         371           4           1   285.58034   534.27189
         371           4           2   290.46589   543.41191
         371           4           3   282.79538   529.06170
         371           4           4   282.29667   528.12871
         371           4           5   283.53320   530.44204
         371           5           1   288.20735   539.18658
         371           5           2   291.01336   544.43615
         371           5           3   283.93712   531.19771
         371           5           4   280.96123   525.63033
         371           5           5   282.21733   527.98028
         372           1           1   283.99066   531.29788
         372           1           2   301.82029   564.65406
         372           1           3   291.55126   545.44247
         372           1           4   293.98373   549.99319
         372           1           5   303.04203   566.93972
         372           2           1   283.54949   530.47252
         372           2           2   300.39651   561.99040
         372           2           3   290.77640   543.99282
         372           2           4   293.66262   549.39246
         372           2           5   302.15495   565.28016
         372           3           1   283.72130   530.79394
         372           3           2   300.33637   561.87789
         372           3           3   288.50707   539.74731
         372           3           4   293.43247   548.96189
         372           3           5   302.37426   565.69044
         372           4           1   284.05688   531.42176
         372           4           2   294.18715   550.37376
         372           4           3   288.71586   540.13791
         372           4           4   291.13807   544.66946
         372           4           5   296.10267   553.95738
         372           5           1   281.02115   525.74243
         372           5           2   292.03431   546.34616
         372           5           3   289.39419   541.40696
         372           5           4   290.59445   543.65243
         372           5           5   294.03823   550.09516
         373           1           1   243.77134   456.05441
         373           1           2   239.17631   447.45790
         373           1           3   213.80510   399.99271
         373           1           4   212.58105   397.70273
         373           1           5   221.38992   414.18261
         373           2           1   242.19711   453.10930
         373           2           2   239.44187   447.95472
         373           2           3   210.88209   394.52427
         373           2           4   206.76968   386.83065
         373           2           5   218.74670   409.23761
         373           3           1   241.20501   451.25326
         373           3           2   238.78823   446.73188
         373           3           3   206.44320   386.21986
         373           3           4   197.95447   370.33890
         373           3           5   212.32874   397.23070
         373           4           1   243.62201   455.77505
         373           4           2   237.06729   443.51229
         373           4           3   202.04172   377.98545
         373           4           4   188.06334   351.83430
         373           4           5   202.51340   378.86787
         373           5           1   243.60548   455.74412
         373           5           2   236.49006   442.43238
         373           5           3   202.31340   378.49371
         373           5           4   182.25626   340.97024
         373           5           5   196.99826   368.54999
         374           1           1   244.99506   458.34379
         374           1           2   249.27634   466.35333
         374           1           3   249.40786   466.59937
         374           1           4   230.92184   432.01521
         374           1           5   247.86335   463.70987
         374           2           1   245.91500   460.06483
         374           2           2   245.67206   459.61034
         374           2           3   246.00538   460.23392
         374           2           4   229.12168   428.64742
         374           2           5   245.11997   458.57747
         374           3           1   245.14127   458.61732
         374           3           2   243.48503   455.51879
         374           3           3   233.53822   436.91000
         374           3           4   224.55984   420.11298
         374           3           5   237.02731   443.43750
         374           4           1   244.91503   458.19406
         374           4           2   239.50962   448.08147
         374           4           3   220.53641   412.58584
         374           4           4   218.45083   408.68409
         374           4           5   225.96544   422.74262
         374           5           1   243.77134   456.05441
         374           5           2   239.17631   447.45790
         374           5           3   213.80510   399.99271
         374           5           4   212.58105   397.70273
         374           5           5   221.38992   414.18261
         375           1           1   242.80806   454.25229
         375           1           2   257.48364   481.70779
         375           1           3   265.10531   495.96662
         375           1           4   241.13830   451.12844
         375           1           5   258.94975   484.45062
         375           2           1   242.46106   453.60311
         375           2           2   256.67012   480.18582
         375           2           3   262.42944   490.96053
         375           2           4   239.26244   447.61904
         375           2           5   259.82012   486.07893
         375           3           1   243.72954   455.97621
         375           3           2   253.83846   474.88828
         375           3           3   256.95585   480.72038
         375           3           4   235.36993   440.33681
         375           3           5   257.18852   481.15567
         375           4           1   244.45720   457.33755
         375           4           2   250.54369   468.72432
         375           4           3   253.15370   473.60721
         375           4           4   232.47031   434.91212
         375           4           5   252.65796   472.67977
         375           5           1   244.99506   458.34379
         375           5           2   249.27634   466.35333
         375           5           3   249.40786   466.59937
         375           5           4   230.92184   432.01521
         375           5           5   247.86335   463.70987
         376           1           1   243.57729   455.69139
         376           1           2   245.82620   459.89872
         376           1           3   266.44566   498.47419
         376           1           4   249.19475   466.20069
         376           1           5   256.62504   480.10149
         376           2           1   242.88186   454.39035
         376           2           2   248.69593   465.26749
         376           2           3   269.17211   503.57490
         376           2           4   248.85783   465.57036
         376           2           5   255.70988   478.38938
         376           3           1   242.09166   452.91203
         376           3           2   253.48722   474.23117
         376           3           3   268.87270   503.01476
         376           3           4   245.82926   459.90443
         376           3           5   255.63603   478.25121
         376           4           1   242.23112   453.17294
         376           4           2   258.15196   482.95809
         376           4           3   266.89123   499.30776
         376           4           4   243.01415   454.63785
         376           4           5   258.27314   483.18481
         376           5           1   242.80806   454.25229
         376           5           2   257.48364   481.70779
         376           5           3   265.10531   495.96662
         376           5           4   241.13830   451.12844
         376           5           5   258.94975   484.45062
         377           1           1   248.03980   464.03998
         377           1           2   230.43775   431.10955
         377           1           3   241.02943   450.92477
         377           1           4   248.46687   464.83895
         377           1           5   243.77026   456.05240
         377           2           1   246.65343   461.44631
         377           2           2   232.04940   434.12467
         377           2           3   244.98764   458.32990
         377           2           4   248.17006   464.28367
         377           2           5   245.19801   458.72347
         377           3           1   243.98172   456.44800
         377           3           2   234.20425   438.15603
         377           3           3   255.01905   477.09696
         377           3           4   249.34863   466.48857
         377           3           5   251.88485   471.23340
         377           4           1   242.61899   453.89856
         377           4           2   242.57393   453.81427
         377           4           3   263.35849   492.69863
         377           4           4   249.85315   467.43244
         377           4           5   254.72660   476.54983
         377           5           1   243.57729   455.69139
         377           5           2   245.82620   459.89872
         377           5           3   266.44566   498.47419
         377           5           4   249.19475   466.20069
         377           5           5   256.62504   480.10149
         378           1           1   258.93561   484.42416
         378           1           2   219.47445   410.59909
         378           1           3   221.15426   413.74173
         378           1           4   249.95838   467.62931
         378           1           5   238.70469   446.57559
         378           2           1   255.26549   477.55800
         378           2           2   223.01636   417.22541
         378           2           3   224.59083   420.17097
         378           2           4   248.43352   464.77657
         378           2           5   241.44896   451.70965
         378           3           1   250.52067   468.68125
         378           3           2   226.07259   422.94309
         378           3           3   228.38930   427.27726
         378           3           4   248.59687   465.08215
         378           3           5   240.42213   449.78861
         378           4           1   248.66721   465.21376
         378           4           2   228.89906   428.23093
         378           4           3   236.71457   442.85241
         378           4           4   248.00856   463.98153
         378           4           5   243.22691   455.03588
         378           5           1   248.03980   464.03998
         378           5           2   230.43775   431.10955
         378           5           3   241.02943   450.92477
         378           5           4   248.46687   464.83895
         378           5           5   243.77026   456.05240
         379           1           1   257.78463   482.27088
         379           1           2   207.79275   388.74465
         379           1           3   220.77312   413.02869
         379           1           4   262.67514   491.42018
         379           1           5   232.78854   435.50747
         379           2           1   257.03040   480.85984
         379           2           2   208.41477   389.90833
         379           2           3   220.45474   412.43306
         379           2           4   261.23636   488.72847
         379           2           5   231.97644   433.98818
         379           3           1   256.00177   478.93546
         379           3           2   211.75217   396.15203
         379           3           3   223.28486   417.72773
         379           3           4   255.56126   478.11134
         379           3           5   233.52727   436.88952
         379           4           1   257.89929   482.48540
         379           4           2   215.97569   404.05352
         379           4           3   220.75236   412.98985
         379           4           4   251.48323   470.48205
         379           4           5   236.66337   442.75662
         379           5           1   258.93561   484.42416
         379           5           2   219.47445   410.59909
         379           5           3   221.15426   413.74173
         379           5           4   249.95838   467.62931
         379           5           5   238.70469   446.57559
         380           1           1   262.60636   491.29151
         380           1           2   213.71793   399.82963
         380           1           3   223.52813   418.18285
         380           1           4   262.22372   490.57566
         380           1           5   239.46194   447.99227
         380           2           1   262.04880   490.24842
         380           2           2   213.81448   400.01027
         380           2           3   222.85218   416.91825
         380           2           4   263.15578   492.31939
         380           2           5   238.21639   445.66206
         380           3           1   258.33529   483.30106
         380           3           2   214.23574   400.79837
         380           3           3   221.48525   414.36096
         380           3           4   264.99011   495.75111
         380           3           5   234.78883   439.24968
         380           4           1   258.17214   482.99585
         380           4           2   210.80565   394.38126
         380           4           3   220.77891   413.03952
         380           4           4   264.10526   494.09570
         380           4           5   233.85033   437.49390
         380           5           1   257.78463   482.27088
         380           5           2   207.79275   388.74465
         380           5           3   220.77312   413.02869
         380           5           4   262.67514   491.42018
         380           5           5   232.78854   435.50747
         381           1           1   257.09620   480.98294
         381           1           2   216.48242   405.00152
         381           1           3   213.70849   399.81198
         381           1           4   254.45946   476.05006
         381           1           5   239.32820   447.74206
         381           2           1   259.30170   485.10907
         381           2           2   214.65729   401.58701
         381           2           3   215.37316   402.92629
         381           2           4   255.97816   478.89128
         381           2           5   239.54831   448.15386
         381           3           1   262.12107   490.38363
         381           3           2   213.00173   398.48975
         381           3           3   220.66957   412.83496
         381           3           4   259.15846   484.84109
         381           3           5   237.73513   444.76170
         381           4           1   262.92668   491.89077
         381           4           2   212.56364   397.67015
         381           4           3   223.99049   419.04783
         381           4           4   261.29409   488.83648
         381           4           5   239.53704   448.13277
         381           5           1   262.60636   491.29151
         381           5           2   213.71793   399.82963
         381           5           3   223.52813   418.18285
         381           5           4   262.22372   490.57566
         381           5           5   239.46194   447.99227
         382           1           1   247.00873   462.11102
         382           1           2   233.30339   436.47068
         382           1           3   212.71991   397.96251
         382           1           4   251.55522   470.61672
         382           1           5   243.02635   454.66066
         382           2           1   247.74290   463.48452
         382           2           2   229.59749   429.53756
         382           2           3   209.64303   392.20620
         382           2           4   251.94883   471.35310
         382           2           5   242.32723   453.35274
         382           3           1   248.73675   465.34385
         382           3           2   224.56159   420.11627
         382           3           3   208.92866   390.86973
         382           3           4   251.41018   470.34538
         382           3           5   240.74943   450.40094
         382           4           1   254.26138   475.67949
         382           4           2   219.74630   411.10768
         382           4           3   211.26369   395.23818
         382           4           4   252.99840   473.31666
         382           4           5   239.14289   447.39538
         382           5           1   257.09620   480.98294
         382           5           2   216.48242   405.00152
         382           5           3   213.70849   399.81198
         382           5           4   254.45946   476.05006
         382           5           5   239.32820   447.74206
         383           1           1   242.62902   453.91733
         383           1           2   244.54660   457.50480
         383           1           3   237.86624   445.00698
         383           1           4   265.92553   497.50111
         383           1           5   244.54415   457.50021
         383           2           1   244.33568   457.11020
         383           2           2   243.67662   455.87720
         383           2           3   233.41762   436.68439
         383           2           4   261.18133   488.62554
         383           2           5   244.58928   457.58463
         383           3           1   245.17829   458.68657
         383           3           2   238.68483   446.53842
         383           3           3   221.75082   414.85779
         383           3           4   256.44322   479.76134
         383           3           5   245.06544   458.47546
         383           4           1   246.12720   460.46183
         383           4           2   235.42740   440.44433
         383           4           3   215.92287   403.95471
         383           4           4   252.95617   473.23767
         383           4           5   243.71896   455.95642
         383           5           1   247.00873   462.11102
         383           5           2   233.30339   436.47068
         383           5           3   212.71991   397.96251
         383           5           4   251.55522   470.61672
         383           5           5   243.02635   454.66066
         384           1           1   251.23173   470.01153
         384           1           2   243.47984   455.50908
         384           1           3   261.82523   489.83016
         384           1           4   281.01220   525.72568
         384           1           5   252.99934   473.31842
         384           2           1   249.00471   465.84515
         384           2           2   241.57083   451.93764
         384           2           3   258.15613   482.96590
         384           2           4   277.82655   519.76588
         384           2           5   251.59746   470.69574
         384           3           1   245.31141   458.93562
         384           3           2   242.55220   453.77361
         384           3           3   250.13882   467.96689
         384           3           4   271.95976   508.79013
         384           3           5   247.42391   462.88774
         384           4           1   242.31930   453.33790
         384           4           2   244.10861   456.68540
         384           4           3   241.91147   452.57492
         384           4           4   267.78826   500.98595
         384           4           5   245.25771   458.83517
         384           5           1   242.62902   453.91733
         384           5           2   244.54660   457.50480
         384           5           3   237.86624   445.00698
         384           5           4   265.92553   497.50111
         384           5           5   244.54415   457.50021
         385           1           1   271.36360   507.67481
         385           1           2   262.19198   490.51628
         385           1           3   283.22040   529.85685
         385           1           4   281.77112   527.14549
         385           1           5   250.39951   468.45459
         385           2           1   267.83412   501.07175
         385           2           2   258.95561   484.46158
         385           2           3   277.98143   520.05564
         385           2           4   282.68896   528.86263
         385           2           5   252.35921   472.12085
         385           3           1   261.15452   488.57537
         385           3           2   252.74565   472.84381
         385           3           3   270.33696   505.75414
         385           3           4   282.41876   528.35712
         385           3           5   254.73057   476.55726
         385           4           1   254.55372   476.22641
         385           4           2   245.94017   460.11193
         385           4           3   264.83084   495.45313
         385           4           4   281.60550   526.83565
         385           4           5   253.67745   474.58706
         385           5           1   251.23173   470.01153
         385           5           2   243.47984   455.50908
         385           5           3   261.82523   489.83016
         385           5           4   281.01220   525.72568
         385           5           5   252.99934   473.31842
         386           1           1   287.13648   537.18316
         386           1           2   279.62514   523.13074
         386           1           3   300.04662   561.33582
         386           1           4   277.96688   520.02842
         386           1           5   243.65706   455.84061
         386           2           1   285.21078   533.58052
         386           2           2   278.63530   521.27892
         386           2           3   298.04453   557.59026
         386           2           4   279.14249   522.22777
         386           2           5   244.66919   457.73413
         386           3           1   280.33547   524.45964
         386           3           2   272.84674   510.44950
         386           3           3   294.39940   550.77085
         386           3           4   279.26046   522.44848
         386           3           5   246.30846   460.80093
         386           4           1   274.52273   513.58500
         386           4           2   265.60521   496.90185
         386           4           3   288.27822   539.31917
         386           4           4   280.22259   524.24846
         386           4           5   248.28984   464.50775
         386           5           1   271.36360   507.67481
         386           5           2   262.19198   490.51628
         386           5           3   283.22040   529.85685
         386           5           4   281.77112   527.14549
         386           5           5   250.39951   468.45459
         387           1           1   299.79156   560.85865
         387           1           2   300.91606   562.96240
         387           1           3   312.03878   583.77110
         387           1           4   271.34452   507.63910
         387           1           5   244.23627   456.92422
         387           2           1   298.63834   558.70118
         387           2           2   297.91439   557.34679
         387           2           3   309.07977   578.23530
         387           2           4   271.08582   507.15512
         387           2           5   242.95980   454.53617
         387           3           1   293.11825   548.37404
         387           3           2   289.08772   540.83361
         387           3           3   304.26887   569.23493
         387           3           4   273.32448   511.34328
         387           3           5   242.14337   453.00877
         387           4           1   288.69453   540.09801
         387           4           2   281.91133   527.40780
         387           4           3   301.69498   564.41962
         387           4           4   276.00139   516.35131
         387           4           5   243.14544   454.88347
         387           5           1   287.13648   537.18316
         387           5           2   279.62514   523.13074
         387           5           3   300.04662   561.33582
         387           5           4   277.96688   520.02842
         387           5           5   243.65706   455.84061
         388           1           1   302.04761   565.07934
         388           1           2   314.42588   588.23696
         388           1           3   319.48545   597.70254
         388           1           4   283.70144   530.75679
         388           1           5   247.13483   462.34693
         388           2           1   301.19531   563.48484
         388           2           2   313.36879   586.25932
         388           2           3   317.93980   594.81090
         388           2           4   281.77300   527.14901
         388           2           5   245.64330   459.55653
         388           3           1   301.42381   563.91232
         388           3           2   309.08329   578.24188
         388           3           3   314.91261   589.14754
         388           3           4   277.24276   518.67371
         388           3           5   244.77520   457.93246
         388           4           1   300.81635   562.77585
         388           4           2   302.34386   565.63356
         388           4           3   314.29065   587.98397
         388           4           4   272.92322   510.59258
         388           4           5   245.47226   459.23654
         388           5           1   299.79156   560.85865
         388           5           2   300.91606   562.96240
         388           5           3   312.03878   583.77110
         388           5           4   271.34452   507.63910
         388           5           5   244.23627   456.92422
         389           1           1   302.46907   565.86781
         389           1           2   321.52251   601.51354
         389           1           3   324.79159   607.62942
         389           1           4   284.93002   533.05526
         389           1           5   261.39919   489.03310
         389           2           1   304.32782   569.34521
         389           2           2   320.27268   599.17532
         389           2           3   324.78711   607.62105
         389           2           4   286.00330   535.06319
         389           2           5   260.27008   486.92073
         389           3           1   303.30407   567.42996
         389           3           2   317.24022   593.50211
         389           3           3   324.31618   606.74002
         389           3           4   287.45645   537.78178
         389           3           5   256.85528   480.53223
         389           4           1   302.46202   565.85463
         389           4           2   314.94688   589.21166
         389           4           3   319.21617   597.19877
         389           4           4   284.89527   532.99024
         389           4           5   249.61866   466.99374
         389           5           1   302.04761   565.07934
         389           5           2   314.42588   588.23696
         389           5           3   319.48545   597.70254
         389           5           4   283.70144   530.75679
         389           5           5   247.13483   462.34693
         390           1           1   298.45664   558.36125
         390           1           2   322.87212   604.03843
         390           1           3   336.80116   630.09727
         390           1           4   272.51518   509.82921
         390           1           5   251.68068   470.85144
         390           2           1   298.40940   558.27286
         390           2           2   322.68119   603.68123
         390           2           3   332.63127   622.29613
         390           2           4   273.53217   511.73183
         390           2           5   254.00665   475.20292
         390           3           1   299.69509   560.67818
         390           3           2   322.70960   603.73439
         390           3           3   326.66741   611.13877
         390           3           4   277.73368   519.59214
         390           3           5   256.98191   480.76914
         390           4           1   301.30163   563.68373
         390           4           2   321.62461   601.70456
         390           4           3   325.06969   608.14971
         390           4           4   282.73532   528.94934
         390           4           5   260.94544   488.18422
         390           5           1   302.46907   565.86781
         390           5           2   321.52251   601.51354
         390           5           3   324.79159   607.62942
         390           5           4   284.93002   533.05526
         390           5           5   261.39919   489.03310
         391           1           1   299.53615   560.38083
         391           1           2   327.84357   613.33915
         391           1           3   353.47480   661.29080
         391           1           4   271.21533   507.39743
         391           1           5   238.39480   445.99583
         391           2           1   299.47965   560.27513
         391           2           2   327.66347   613.00223
         391           2           3   350.85403   656.38778
         391           2           4   269.88160   504.90225
         391           2           5   240.34714   449.64833
         391           3           1   301.13660   563.37499
         391           3           2   326.88553   611.54683
         391           3           3   347.90477   650.87022
         391           3           4   271.65946   508.22831
         391           3           5   245.23706   458.79653
         391           4           1   299.19792   559.74806
         391           4           2   324.57120   607.21711
         391           4           3   340.63725   637.27394
         391           4           4   273.36181   511.41313
         391           4           5   248.25490   464.44240
         391           5           1   298.45664   558.36125
         391           5           2   322.87212   604.03843
         391           5           3   336.80116   630.09727
         391           5           4   272.51518   509.82921
         391           5           5   251.68068   470.85144
         392           1           1   297.47822   556.53079
         392           1           2   317.04062   593.12869
         392           1           3   356.97533   667.83968
         392           1           4   284.79569   532.80394
         392           1           5   249.83251   467.39383
         392           2           1   299.39785   560.12209
         392           2           2   320.25211   599.13683
         392           2           3   357.67482   669.14832
         392           2           4   281.96259   527.50370
         392           2           5   246.95277   462.00632
         392           3           1   300.69072   562.54082
         392           3           2   325.42543   608.81523
         392           3           3   355.16280   664.44875
         392           3           4   272.94976   510.64224
         392           3           5   241.77427   452.31825
         392           4           1   299.34534   560.02386
         392           4           2   327.05294   611.86003
         392           4           3   354.02318   662.31673
         392           4           4   272.00122   508.86770
         392           4           5   238.64490   446.46372
         392           5           1   299.53615   560.38083
         392           5           2   327.84357   613.33915
         392           5           3   353.47480   661.29080
         392           5           4   271.21533   507.39743
         392           5           5   238.39480   445.99583
         393           1           1   285.35201   533.84472
         393           1           2   300.05727   561.35576
         393           1           3   344.57743   644.64534
         393           1           4   305.97000   572.41746
         393           1           5   276.55079   517.37915
         393           2           1   288.84533   540.38014
         393           2           2   302.36553   565.67411
         393           2           3   348.49541   651.97521
         393           2           4   302.22646   565.41392
         393           2           5   272.13888   509.12522
         393           3           1   292.04353   546.36342
         393           3           2   308.07732   576.35988
         393           3           3   354.01173   662.29529
         393           3           4   295.65850   553.12641
         393           3           5   265.43265   496.57902
         393           4           1   294.76251   551.45015
         393           4           2   314.69428   588.73909
         393           4           3   356.85051   667.60617
         393           4           4   289.41905   541.45346
         393           4           5   253.74612   474.71552
         393           5           1   297.47822   556.53079
         393           5           2   317.04062   593.12869
         393           5           3   356.97533   667.83968
         393           5           4   284.79569   532.80394
         393           5           5   249.83251   467.39383
         394           1           1   269.43613   504.06884
         394           1           2   283.89686   531.12240
         394           1           3   314.43399   588.25214
         394           1           4   304.09246   568.90490
         394           1           5   288.20735   539.18658
         394           2           1   272.96840   510.67711
         394           2           2   286.04364   535.13865
         394           2           3   322.60246   603.53394
         394           2           4   306.28221   573.00154
         394           2           5   287.63884   538.12300
         394           3           1   278.51557   521.05492
         394           3           2   290.80002   544.03703
         394           3           3   334.32026   625.45594
         394           3           4   309.40959   578.85234
         394           3           5   285.89275   534.85635
         394           4           1   282.61973   528.73310
         394           4           2   298.16138   557.80887
         394           4           3   339.82130   635.74744
         394           4           4   308.55393   577.25154
         394           4           5   280.55201   524.86475
         394           5           1   285.35201   533.84472
         394           5           2   300.05727   561.35576
         394           5           3   344.57743   644.64534
         394           5           4   305.97000   572.41746
         394           5           5   276.55079   517.37915
         395           1           1   248.08586   464.12615
         395           1           2   270.30550   505.69528
         395           1           3   276.14785   516.62531
         395           1           4   283.32839   530.05889
         395           1           5   281.02115   525.74243
         395           2           1   251.79263   471.06087
         395           2           2   274.06115   512.72147
         395           2           3   281.33236   526.32465
         395           2           4   286.74494   536.45066
         395           2           5   281.45377   526.55178
         395           3           1   258.23216   483.10814
         395           3           2   277.28194   518.74701
         395           3           3   292.82118   547.81827
         395           3           4   292.85066   547.87342
         395           3           5   284.65339   532.53773
         395           4           1   266.25543   498.11830
         395           4           2   282.17333   527.89797
         395           4           3   306.60123   573.59838
         395           4           4   300.80866   562.76148
         395           4           5   285.58034   534.27189
         395           5           1   269.43613   504.06884
         395           5           2   283.89686   531.12240
         395           5           3   314.43399   588.25214
         395           5           4   304.09246   568.90490
         395           5           5   288.20735   539.18658
         396           1           1   237.22559   443.80844
         396           1           2   248.01840   463.99995
         396           1           3   246.88538   461.88025
         396           1           4   278.94723   521.86249
         396           1           5   283.99066   531.29788
         396           2           1   237.59249   444.49485
         396           2           2   251.33690   470.20829
         396           2           3   250.16894   468.02323
         396           2           4   277.84140   519.79366
         396           2           5   283.54949   530.47252
         396           3           1   237.28914   443.92734
         396           3           2   258.40258   483.42697
         396           3           3   259.01995   484.58195
         396           3           4   277.98035   520.05361
         396           3           5   283.72130   530.79394
         396           4           1   243.77195   456.05556
         396           4           2   267.07780   499.65682
         396           4           3   269.31734   503.84661
         396           4           4   281.65214   526.92290
         396           4           5   284.05688   531.42176
         396           5           1   248.08586   464.12615
         396           5           2   270.30550   505.69528
         396           5           3   276.14785   516.62531
         396           5           4   283.32839   530.05889
         396           5           5   281.02115   525.74243
         397           1           1   286.90667   536.75323
         397           1           2   269.18612   503.60112
         397           1           3   267.83172   501.06727
         397           1           4   248.83989   465.53682
         397           1           5   243.77134   456.05441
         397           2           1   283.18864   529.79743
         397           2           2   268.16719   501.69487
         397           2           3   265.38863   496.49667
         397           2           4   249.79387   467.32154
         397           2           5   242.19711   453.10930
         397           3           1   278.19624   520.45751
         397           3           2   268.84428   502.96160
         397           3           3   264.34134   494.53736
         397           3           4   249.33587   466.46470
         397           3           5   241.20501   451.25326
         397           4           1   271.68273   508.27184
         397           4           2   265.88218   497.42001
         397           4           3   260.39229   487.14937
         397           4           4   249.64984   467.05208
         397           4           5   243.62201   455.77505
         397           5           1   267.73690   500.88987
         397           5           2   264.28480   494.43158
         397           5           3   258.11464   482.88828
         397           5           4   250.61327   468.85450
         397           5           5   243.60548   455.74412
         398           1           1   309.76102   579.50980
         398           1           2   273.25338   511.21027
         398           1           3   260.30571   486.98739
         398           1           4   247.57552   463.17139
         398           1           5   244.99506   458.34379
         398           2           1   303.82715   568.40856
         398           2           2   268.53319   502.37960
         398           2           3   262.70882   491.48319
         398           2           4   248.33602   464.59415
         398           2           5   245.91500   460.06483
         398           3           1   295.56414   552.94987
         398           3           2   265.32158   496.37123
         398           3           3   268.38846   502.10884
         398           3           4   248.32195   464.56783
         398           3           5   245.14127   458.61732
         398           4           1   290.06075   542.65397
         398           4           2   266.84837   499.22759
         398           4           3   269.92824   504.98950
         398           4           4   247.88592   463.75209
         398           4           5   244.91503   458.19406
         398           5           1   286.90667   536.75323
         398           5           2   269.18612   503.60112
         398           5           3   267.83172   501.06727
         398           5           4   248.83989   465.53682
         398           5           5   243.77134   456.05441
         399           1           1   341.80473   639.45810
         399           1           2   299.76232   560.80395
         399           1           3   253.38152   474.03342
         399           1           4   250.21967   468.11814
         399           1           5   242.80806   454.25229
         399           2           1   338.04208   632.41883
         399           2           2   296.49036   554.68266
         399           2           3   252.29999   472.01006
         399           2           4   247.51697   463.06186
         399           2           5   242.46106   453.60311
         399           3           1   327.92923   613.49941
         399           3           2   284.58095   532.40221
         399           3           3   254.54127   476.20310
         399           3           4   247.14705   462.36979
         399           3           5   243.72954   455.97621
         399           4           1   315.61624   590.46393
         399           4           2   277.49194   519.13989
         399           4           3   258.08940   482.84105
         399           4           4   246.84756   461.80949
         399           4           5   244.45720   457.33755
         399           5           1   309.76102   579.50980
         399           5           2   273.25338   511.21027
         399           5           3   260.30571   486.98739
         399           5           4   247.57552   463.17139
         399           5           5   244.99506   458.34379
         400           1           1   352.98828   660.38060
         400           1           2   306.42268   573.26434
         400           1           3   266.76698   499.07533
         400           1           4   267.99407   501.37099
         400           1           5   243.57729   455.69139
         400           2           1   351.34196   657.30062
         400           2           2   305.36975   571.29450
         400           2           3   262.07334   490.29433
         400           2           4   265.84290   497.34652
         400           2           5   242.88186   454.39035
         400           3           1   348.81740   652.57760
         400           3           2   304.27195   569.24069
         400           3           3   255.62851   478.23715
         400           3           4   259.24262   484.99854
         400           3           5   242.09166   452.91203
         400           4           1   344.66289   644.80523
         400           4           2   303.07526   567.00190
         400           4           3   253.94512   475.08782
         400           4           4   252.92237   473.17442
         400           4           5   242.23112   453.17294
         400           5           1   341.80473   639.45810
         400           5           2   299.76232   560.80395
         400           5           3   253.38152   474.03342
         400           5           4   250.21967   468.11814
         400           5           5   242.80806   454.25229
         401           1           1   362.46562   678.11109
         401           1           2   326.64452   611.09594
         401           1           3   281.71432   527.03924
         401           1           4   275.82101   516.01386
         401           1           5   248.03980   464.03998
         401           2           1   361.09119   675.53975
         401           2           2   323.59556   605.39186
         401           2           3   278.45417   520.94004
         401           2           4   275.89082   516.14446
         401           2           5   246.65343   461.44631
         401           3           1   358.20479   670.13979
         401           3           2   316.43833   592.00190
         401           3           3   272.18940   509.21974
         401           3           4   272.84384   510.44408
         401           3           5   243.98172   456.44800
         401           4           1   354.74717   663.67118
         401           4           2   308.42429   577.00902
         401           4           3   268.67719   502.64900
         401           4           4   269.98363   505.09312
         401           4           5   242.61899   453.89856
         401           5           1   352.98828   660.38060
         401           5           2   306.42268   573.26434
         401           5           3   266.76698   499.07533
         401           5           4   267.99407   501.37099
         401           5           5   243.57729   455.69139
         402           1           1   366.36975   685.41505
         402           1           2   342.61721   640.97811
         402           1           3   293.67893   549.42298
         402           1           4   283.48494   530.35176
         402           1           5   258.93561   484.42416
         402           2           1   367.48095   687.49391
         402           2           2   342.24726   640.28600
         402           2           3   291.41055   545.17922
         402           2           4   280.85156   525.42516
         402           2           5   255.26549   477.55800
         402           3           1   365.66628   684.09896
         402           3           2   336.05903   628.70888
         402           3           3   286.72178   536.40734
         402           3           4   277.74471   519.61277
         402           3           5   250.52067   468.68125
         402           4           1   363.89829   680.79135
         402           4           2   330.08758   617.53732
         402           4           3   282.76591   529.00657
         402           4           4   276.00165   516.35181
         402           4           5   248.66721   465.21376
         402           5           1   362.46562   678.11109
         402           5           2   326.64452   611.09594
         402           5           3   281.71432   527.03924
         402           5           4   275.82101   516.01386
         402           5           5   248.03980   464.03998
         403           1           1   356.29032   666.55815
         403           1           2   342.88360   641.47648
         403           1           3   304.18722   569.08218
         403           1           4   295.76539   553.32637
         403           1           5   257.78463   482.27088
         403           2           1   360.63126   674.67931
         403           2           2   342.48026   640.72189
         403           2           3   304.53249   569.72813
         403           2           4   294.23229   550.45821
         403           2           5   257.03040   480.85984
         403           3           1   363.17651   679.44104
         403           3           2   343.86617   643.31470
         403           3           3   300.79711   562.73986
         403           3           4   290.99747   544.40641
         403           3           5   256.00177   478.93546
         403           4           1   365.25776   683.33469
         403           4           2   343.10504   641.89074
         403           4           3   295.96527   553.70033
         403           4           4   286.28862   535.59697
         403           4           5   257.89929   482.48540
         403           5           1   366.36975   685.41505
         403           5           2   342.61721   640.97811
         403           5           3   293.67893   549.42298
         403           5           4   283.48494   530.35176
         403           5           5   258.93561   484.42416
         404           1           1   362.79620   678.72954
         404           1           2   346.13581   647.56081
         404           1           3   306.02633   572.52283
         404           1           4   300.48032   562.14720
         404           1           5   262.60636   491.29151
         404           2           1   361.99733   677.23500
         404           2           2   345.26956   645.94019
         404           2           3   303.43403   567.67309
         404           2           4   300.32663   561.85968
         404           2           5   262.04880   490.24842
         404           3           1   360.11152   673.70696
         404           3           2   341.07710   638.09682
         404           3           3   303.92218   568.58634
         404           3           4   299.36636   560.06318
         404           3           5   258.33529   483.30106
         404           4           1   357.49784   668.81721
         404           4           2   342.35192   640.48179
         404           4           3   303.81051   568.37743
         404           4           4   297.19590   556.00262
         404           4           5   258.17214   482.99585
         404           5           1   356.29032   666.55815
         404           5           2   342.88360   641.47648
         404           5           3   304.18722   569.08218
         404           5           4   295.76539   553.32637
         404           5           5   257.78463   482.27088
         405           1           1   361.82653   676.91546
         405           1           2   345.44250   646.26373
         405           1           3   322.67428   603.66829
         405           1           4   303.26592   567.35858
         405           1           5   257.09620   480.98294
         405           2           1   362.20799   677.62910
         405           2           2   344.72223   644.91625
         405           2           3   321.14011   600.79814
         405           2           4   304.84024   570.30387
         405           2           5   259.30170   485.10907
         405           3           1   365.83681   684.41800
         405           3           2   342.49847   640.75596
         405           3           3   314.49148   588.35968
         405           3           4   301.67871   564.38919
         405           3           5   262.12107   490.38363
         405           4           1   363.63164   680.29250
         405           4           2   345.06884   645.56468
         405           4           3   308.77426   577.66375
         405           4           4   300.32444   561.85559
         405           4           5   262.92668   491.89077
         405           5           1   362.79620   678.72954
         405           5           2   346.13581   647.56081
         405           5           3   306.02633   572.52283
         405           5           4   300.48032   562.14720
         405           5           5   262.60636   491.29151
         406           1           1   361.79870   676.86338
         406           1           2   340.90701   637.77861
         406           1           3   332.41813   621.89737
         406           1           4   285.65429   534.41024
         406           1           5   247.00873   462.11102
         406           2           1   359.79160   673.10845
         406           2           2   341.84039   639.52482
         406           2           3   330.37125   618.06801
         406           2           4   288.63854   539.99326
         406           2           5   247.74290   463.48452
         406           3           1   359.32558   672.23660
         406           3           2   346.46964   648.18535
         406           3           3   327.79009   613.23911
         406           3           4   296.36193   554.44240
         406           3           5   248.73675   465.34385
         406           4           1   360.48436   674.40449
         406           4           2   346.09817   647.49039
         406           4           3   323.90385   605.96862
         406           4           4   301.23886   563.56630
         406           4           5   254.26138   475.67949
         406           5           1   361.82653   676.91546
         406           5           2   345.44250   646.26373
         406           5           3   322.67428   603.66829
         406           5           4   303.26592   567.35858
         406           5           5   257.09620   480.98294
         407           1           1   373.14879   698.09746
         407           1           2   337.94729   632.24149
         407           1           3   340.05741   636.18916
         407           1           4   278.01051   520.11005
         407           1           5   242.62902   453.91733
         407           2           1   371.40054   694.82679
         407           2           2   337.62045   631.63002
         407           2           3   339.04369   634.29266
         407           2           4   278.14552   520.36262
         407           2           5   244.33568   457.11020
         407           3           1   367.91456   688.30511
         407           3           2   339.15046   634.49242
         407           3           3   334.99700   626.72200
         407           3           4   279.73763   523.34119
         407           3           5   245.17829   458.68657
         407           4           1   364.19527   681.34696
         407           4           2   340.31901   636.67856
         407           4           3   333.11754   623.20585
         407           4           4   282.91099   529.27799
         407           4           5   246.12720   460.46183
         407           5           1   361.79870   676.86338
         407           5           2   340.90701   637.77861
         407           5           3   332.41813   621.89737
         407           5           4   285.65429   534.41024
         407           5           5   247.00873   462.11102
         408           1           1   385.26954   720.77330
         408           1           2   347.36756   649.86520
         408           1           3   336.68872   629.88691
         408           1           4   281.82597   527.24811
         408           1           5   251.23173   470.01153
         408           2           1   383.59022   717.63159
         408           2           2   345.79992   646.93241
         408           2           3   337.44785   631.30712
         408           2           4   280.70461   525.15024
         408           2           5   249.00471   465.84515
         408           3           1   380.50372   711.85728
         408           3           2   340.53577   637.08410
         408           3           3   338.77786   633.79534
         408           3           4   278.85013   521.68083
         408           3           5   245.31141   458.93562
         408           4           1   374.86375   701.30587
         408           4           2   338.74389   633.73179
         408           4           3   340.64543   637.28925
         408           4           4   278.09752   520.27283
         408           4           5   242.31930   453.33790
         408           5           1   373.14879   698.09746
         408           5           2   337.94729   632.24149
         408           5           3   340.05741   636.18916
         408           5           4   278.01051   520.11005
         408           5           5   242.62902   453.91733
         409           1           1   388.75709   727.29792
         409           1           2   358.55791   670.80043
         409           1           3   323.38606   604.99993
         409           1           4   283.14303   529.71210
         409           1           5   271.36360   507.67481
         409           2           1   387.32435   724.61751
         409           2           2   355.71787   665.48719
         409           2           3   326.96806   611.70123
         409           2           4   283.62733   530.61815
         409           2           5   267.83412   501.07175
         409           3           1   387.42565   724.80702
         409           3           2   350.65049   656.00700
         409           3           3   332.28777   621.65350
         409           3           4   284.09825   531.49916
         409           3           5   261.15452   488.57537
         409           4           1   386.18912   722.49368
         409           4           2   348.08103   651.19998
         409           4           3   335.88783   628.38858
         409           4           4   282.89964   529.25676
         409           4           5   254.55372   476.22641
         409           5           1   385.26954   720.77330
         409           5           2   347.36756   649.86520
         409           5           3   336.68872   629.88691
         409           5           4   281.82597   527.24811
         409           5           5   251.23173   470.01153
         410           1           1   400.78570   749.80139
         410           1           2   369.32937   690.95199
         410           1           3   305.46960   571.48129
         410           1           4   295.42861   552.69633
         410           1           5   287.13648   537.18316
         410           2           1   399.50553   747.40642
         410           2           2   368.25779   688.94724
         410           2           3   308.41395   576.98967
         410           2           4   294.10118   550.21293
         410           2           5   285.21078   533.58052
         410           3           1   394.67008   738.36011
         410           3           2   365.46334   683.71929
         410           3           3   315.25770   589.79316
         410           3           4   288.84124   540.37248
         410           3           5   280.33547   524.45964
         410           4           1   391.04957   731.58676
         410           4           2   361.50020   676.30494
         410           4           3   319.59527   597.90801
         410           4           4   284.89364   532.98720
         410           4           5   274.52273   513.58500
         410           5           1   388.75709   727.29792
         410           5           2   358.55791   670.80043
         410           5           3   323.38606   604.99993
         410           5           4   283.14303   529.71210
         410           5           5   271.36360   507.67481
         411           1           1   411.39598   769.65140
         411           1           2   376.44991   704.27330
         411           1           3   302.61276   566.13663
         411           1           4   309.14211   578.35193
         411           1           5   299.79156   560.85865
         411           2           1   408.92290   765.02469
         411           2           2   375.45092   702.40434
         411           2           3   303.48350   567.76564
         411           2           4   306.63961   573.67017
         411           2           5   298.63834   558.70118
         411           3           1   406.43571   760.37159
         411           3           2   372.56521   697.00568
         411           3           3   302.37526   565.69231
         411           3           4   302.97365   566.81179
         411           3           5   293.11825   548.37404
         411           4           1   401.24374   750.65830
         411           4           2   370.33036   692.82466
         411           4           3   303.36896   567.55135
         411           4           4   297.89758   557.31535
         411           4           5   288.69453   540.09801
         411           5           1   400.78570   749.80139
         411           5           2   369.32937   690.95199
         411           5           3   305.46960   571.48129
         411           5           4   295.42861   552.69633
         411           5           5   287.13648   537.18316
         412           1           1   433.45092   810.91241
         412           1           2   378.61706   708.32766
         412           1           3   312.18748   584.04930
         412           1           4   320.59665   599.78140
         412           1           5   302.04761   565.07934
         412           2           1   428.81579   802.24088
         412           2           2   377.43010   706.10707
         412           2           3   310.63189   581.13906
         412           2           4   319.76061   598.21733
         412           2           5   301.19531   563.48484
         412           3           1   421.10221   787.81010
         412           3           2   376.16549   703.74119
         412           3           3   305.74427   571.99515
         412           3           4   316.36146   591.85809
         412           3           5   301.42381   563.91232
         412           4           1   414.58082   775.60970
         412           4           2   376.63542   704.62035
         412           4           3   302.69032   566.28174
         412           4           4   312.15604   583.99047
         412           4           5   300.81635   562.77585
         412           5           1   411.39598   769.65140
         412           5           2   376.44991   704.27330
         412           5           3   302.61276   566.13663
         412           5           4   309.14211   578.35193
         412           5           5   299.79156   560.85865
         413           1           1   446.27459   834.90330
         413           1           2   392.60421   734.49522
         413           1           3   318.80659   596.43252
         413           1           4   304.29976   569.29272
         413           1           5   302.46907   565.86781
         413           2           1   447.33523   836.88759
         413           2           2   390.75062   731.02746
         413           2           3   318.27269   595.43369
         413           2           4   305.61602   571.75522
         413           2           5   304.32782   569.34521
         413           3           1   444.50699   831.59644
         413           3           2   386.17694   722.47090
         413           3           3   317.23451   593.49143
         413           3           4   313.64319   586.77268
         413           3           5   303.30407   567.42996
         413           4           1   438.74376   820.81441
         413           4           2   380.84475   712.49529
         413           4           3   312.99295   585.55620
         413           4           4   318.52265   595.90131
         413           4           5   302.46202   565.85463
         413           5           1   433.45092   810.91241
         413           5           2   378.61706   708.32766
         413           5           3   312.18748   584.04930
         413           5           4   320.59665   599.78140
         413           5           5   302.04761   565.07934
         414           1           1   436.99426   817.54141
         414           1           2   401.49224   751.12319
         414           1           3   329.61909   616.66086
         414           1           4   302.24458   565.44782
         414           1           5   298.45664   558.36125
         414           2           1   438.59702   820.53990
         414           2           2   401.42710   751.00134
         414           2           3   327.76748   613.19681
         414           2           4   301.86017   564.72867
         414           2           5   298.40940   558.27286
         414           3           1   441.47867   825.93095
         414           3           2   399.44458   747.29238
         414           3           3   325.42727   608.81867
         414           3           4   298.32276   558.11078
         414           3           5   299.69509   560.67818
         414           4           1   444.15521   830.93831
         414           4           2   394.43748   737.92496
         414           4           3   321.01155   600.55763
         414           4           4   301.64152   564.31962
         414           4           5   301.30163   563.68373
         414           5           1   446.27459   834.90330
         414           5           2   392.60421   734.49522
         414           5           3   318.80659   596.43252
         414           5           4   304.29976   569.29272
         414           5           5   302.46907   565.86781
         415           1           1   438.57111   820.49141
         415           1           2   402.44198   752.90001
         415           1           3   343.80849   643.20679
         415           1           4   304.16232   569.03560
         415           1           5   299.53615   560.38083
         415           2           1   438.33193   820.04394
         415           2           2   402.42020   752.85926
         415           2           3   342.77575   641.27470
         415           2           4   304.58930   569.83439
         415           2           5   299.47965   560.27513
         415           3           1   437.90490   819.24506
         415           3           2   402.52225   753.05017
         415           3           3   339.63606   635.40089
         415           3           4   305.48764   571.51505
         415           3           5   301.13660   563.37499
         415           4           1   436.62008   816.84137
         415           4           2   401.62774   751.37671
         415           4           3   332.21792   621.52282
         415           4           4   303.74675   568.25813
         415           4           5   299.19792   559.74806
         415           5           1   436.99426   817.54141
         415           5           2   401.49224   751.12319
         415           5           3   329.61909   616.66086
         415           5           4   302.24458   565.44782
         415           5           5   298.45664   558.36125
         416           1           1   437.22226   817.96795
         416           1           2   397.51899   743.68993
         416           1           3   341.28715   638.48979
         416           1           4   291.94094   546.17149
         416           1           5   297.47822   556.53079
         416           2           1   436.99143   817.53611
         416           2           2   397.75334   744.12836
         416           2           3   344.28174   644.09215
         416           2           4   295.11146   552.10298
         416           2           5   299.39785   560.12209
         416           3           1   438.22842   819.85030
         416           3           2   399.35967   747.13352
         416           3           3   345.98711   647.28261
         416           3           4   301.32179   563.72145
         416           3           5   300.69072   562.54082
         416           4           1   438.67985   820.69486
         416           4           2   401.94851   751.97680
         416           4           3   344.14672   643.83956
         416           4           4   303.84886   568.44916
         416           4           5   299.34534   560.02386
         416           5           1   438.57111   820.49141
         416           5           2   402.44198   752.90001
         416           5           3   343.80849   643.20679
         416           5           4   304.16232   569.03560
         416           5           5   299.53615   560.38083
         417           1           1   432.29556   808.75093
         417           1           2   389.33238   728.37418
         417           1           3   330.98060   619.20801
         417           1           4   287.30833   537.50467
         417           1           5   285.35201   533.84472
         417           2           1   434.92985   813.67924
         417           2           2   392.51144   734.32166
         417           2           3   333.58670   624.08357
         417           2           4   287.74478   538.32119
         417           2           5   288.84533   540.38014
         417           3           1   435.18136   814.14978
         417           3           2   396.31159   741.43109
         417           3           3   337.57193   631.53925
         417           3           4   287.78445   538.39541
         417           3           5   292.04353   546.36342
         417           4           1   436.79616   817.17079
         417           4           2   397.18901   743.07260
         417           4           3   339.45883   635.06932
         417           4           4   290.29472   543.09170
         417           4           5   294.76251   551.45015
         417           5           1   437.22226   817.96795
         417           5           2   397.51899   743.68993
         417           5           3   341.28715   638.48979
         417           5           4   291.94094   546.17149
         417           5           5   297.47822   556.53079
         418           1           1   410.24261   767.49365
         418           1           2   377.73984   706.68653
         418           1           3   322.56819   603.46983
         418           1           4   278.35718   520.75859
         418           1           5   269.43613   504.06884
         418           2           1   415.22443   776.81377
         418           2           2   380.42935   711.71815
         418           2           3   323.93358   606.02424
         418           2           4   279.69964   523.27012
         418           2           5   272.96840   510.67711
         418           3           1   423.77114   792.80320
         418           3           2   384.50102   719.33553
         418           3           3   325.55246   609.05288
         418           3           4   282.00828   527.58919
         418           3           5   278.51557   521.05492
         418           4           1   428.52271   801.69259
         418           4           2   387.52451   724.99196
         418           4           3   328.54410   614.64973
         418           4           4   284.89653   532.99260
         418           4           5   282.61973   528.73310
         418           5           1   432.29556   808.75093
         418           5           2   389.33238   728.37418
         418           5           3   330.98060   619.20801
         418           5           4   287.30833   537.50467
         418           5           5   285.35201   533.84472
         419           1           1   386.89965   723.82296
         419           1           2   359.25568   672.10584
         419           1           3   308.51192   577.17296
         419           1           4   270.28947   505.66529
         419           1           5   248.08586   464.12615
         419           2           1   391.99337   733.35244
         419           2           2   362.94611   679.00999
         419           2           3   312.80950   585.21298
         419           2           4   270.42288   505.91489
         419           2           5   251.79263   471.06087
         419           3           1   401.05533   750.30581
         419           3           2   369.94865   692.11054
         419           3           3   315.17176   589.63236
         419           3           4   272.28325   509.39532
         419           3           5   258.23216   483.10814
         419           4           1   406.14876   759.83475
         419           4           2   374.74993   701.09292
         419           4           3   319.30859   597.37167
         419           4           4   275.97163   516.29565
         419           4           5   266.25543   498.11830
         419           5           1   410.24261   767.49365
         419           5           2   377.73984   706.68653
         419           5           3   322.56819   603.46983
         419           5           4   278.35718   520.75859
         419           5           5   269.43613   504.06884
         420           1           1   365.77633   684.30485
         420           1           2   337.78590   631.93956
         420           1           3   301.72093   564.46817
         420           1           4   265.53722   496.77466
         420           1           5   237.22559   443.80844
         420           2           1   367.90964   688.29591
         420           2           2   339.75598   635.62523
         420           2           3   303.50405   567.80409
         420           2           4   266.30288   498.20708
         420           2           5   237.59249   444.49485
         420           3           1   372.22975   696.37810
         420           3           2   345.02131   645.47577
         420           3           3   305.49953   571.53729
         420           3           4   268.39820   502.12705
         420           3           5   237.28914   443.92734
         420           4           1   383.40776   717.29025
         420           4           2   354.00620   662.28496
         420           4           3   308.21649   576.62025
         420           4           4   269.88392   504.90657
         420           4           5   243.77195   456.05556
         420           5           1   386.89965   723.82296
         420           5           2   359.25568   672.10584
         420           5           3   308.51192   577.17296
         420           5           4   270.28947   505.66529
         420           5           5   248.08586   464.12615
         421           1           1   420.34936   786.40164
         421           1           2   407.88786   763.08831
         421           1           3   359.84812   673.21419
         421           1           4   309.55658   579.12732
         421           1           5   286.90667   536.75323
         421           2           1   417.60820   781.27341
         421           2           2   402.95655   753.86268
         421           2           3   355.20064   664.51955
         421           2           4   302.72952   566.35508
         421           2           5   283.18864   529.79743
         421           3           1   411.15347   769.19771
         421           3           2   394.34233   737.74695
         421           3           3   350.77370   656.23750
         421           3           4   295.24711   552.35677
         421           3           5   278.19624   520.45751
         421           4           1   405.23135   758.11843
         421           4           2   388.38742   726.60633
         421           4           3   344.63423   644.75160
         421           4           4   288.82348   540.33925
         421           4           5   271.68273   508.27184
         421           5           1   401.10777   750.40393
         421           5           2   386.16891   722.45588
         421           5           3   341.72790   639.31437
         421           5           4   285.26594   533.68371
         421           5           5   267.73690   500.88987
         422           1           1   426.82902   798.52397
         422           1           2   428.30733   801.28964
         422           1           3   397.28999   743.26151
         422           1           4   342.45247   640.66990
         422           1           5   309.76102   579.50980
         422           2           1   426.33423   797.59831
         422           2           2   424.66639   794.47807
         422           2           3   391.55451   732.53141
         422           2           4   337.41554   631.24668
         422           2           5   303.82715   568.40856
         422           3           1   424.60497   794.36317
         422           3           2   415.60820   777.53174
         422           3           3   379.78569   710.51397
         422           3           4   327.37836   612.46883
         422           3           5   295.56414   552.94987
         422           4           1   423.08140   791.51281
         422           4           2   410.55227   768.07297
         422           4           3   366.32883   685.33849
         422           4           4   316.38363   591.89957
         422           4           5   290.06075   542.65397
         422           5           1   420.34936   786.40164
         422           5           2   407.88786   763.08831
         422           5           3   359.84812   673.21419
         422           5           4   309.55658   579.12732
         422           5           5   286.90667   536.75323
         423           1           1   428.57247   801.78567
         423           1           2   439.98039   823.12795
         423           1           3   415.68193   777.66967
         423           1           4   371.87444   695.71338
         423           1           5   341.80473   639.45810
         423           2           1   427.25183   799.31498
         423           2           2   437.97225   819.37106
         423           2           3   415.18851   776.74657
         423           2           4   367.97604   688.42013
         423           2           5   338.04208   632.41883
         423           3           1   428.60179   801.84052
         423           3           2   433.08255   810.22326
         423           3           3   408.97472   765.12165
         423           3           4   357.71790   669.22892
         423           3           5   327.92923   613.49941
         423           4           1   428.07095   800.84741
         423           4           2   432.13153   808.44406
         423           4           3   402.80068   753.57107
         423           4           4   347.48939   650.09312
         423           4           5   315.61624   590.46393
         423           5           1   426.82902   798.52397
         423           5           2   428.30733   801.28964
         423           5           3   397.28999   743.26151
         423           5           4   342.45247   640.66990
         423           5           5   309.76102   579.50980
         424           1           1   437.45310   818.39981
         424           1           2   453.19230   847.84516
         424           1           3   415.48999   777.31059
         424           1           4   393.10730   735.43642
         424           1           5   352.98828   660.38060
         424           2           1   437.06182   817.66779
         424           2           2   451.52079   844.71805
         424           2           3   413.66910   773.90402
         424           2           4   389.65706   728.98160
         424           2           5   351.34196   657.30062
         424           3           1   434.11166   812.14856
         424           3           2   448.90386   839.82223
         424           3           3   415.49721   777.32410
         424           3           4   382.79885   716.15108
         424           3           5   348.81740   652.57760
         424           4           1   429.89311   804.25637
         424           4           2   442.58503   828.00077
         424           4           3   416.23141   778.69766
         424           4           4   375.77284   703.00662
         424           4           5   344.66289   644.80523
         424           5           1   428.57247   801.78567
         424           5           2   439.98039   823.12795
         424           5           3   415.68193   777.66967
         424           5           4   371.87444   695.71338
         424           5           5   341.80473   639.45810
         425           1           1   425.03188   795.16183
         425           1           2   447.39650   837.00221
         425           1           3   428.87028   802.34282
         425           1           4   409.77168   766.61262
         425           1           5   362.46562   678.11109
         425           2           1   426.96861   798.78514
         425           2           2   449.73386   841.37501
         425           2           3   425.52930   796.09243
         425           2           4   407.64504   762.63404
         425           2           5   361.09119   675.53975
         425           3           1   433.23028   810.49963
         425           3           2   449.26722   840.50200
         425           3           3   419.80072   785.37523
         425           3           4   402.42164   752.86196
         425           3           5   358.20479   670.13979
         425           4           1   437.67644   818.81764
         425           4           2   453.64269   848.68777
         425           4           3   417.31087   780.71716
         425           4           4   396.55755   741.89124
         425           4           5   354.74717   663.67118
         425           5           1   437.45310   818.39981
         425           5           2   453.19230   847.84516
         425           5           3   415.48999   777.31059
         425           5           4   393.10730   735.43642
         425           5           5   352.98828   660.38060
         426           1           1   407.26564   761.92425
         426           1           2   421.17690   787.94983
         426           1           3   442.90096   828.59183
         426           1           4   405.13851   757.94475
         426           1           5   366.36975   685.41505
         426           2           1   409.71866   766.51342
         426           2           2   425.68009   796.37453
         426           2           3   441.55489   826.07355
         426           2           4   406.79590   761.04544
         426           2           5   367.48095   687.49391
         426           3           1   415.82293   777.93348
         426           3           2   435.71028   815.13929
         426           3           3   436.50715   816.63010
         426           3           4   411.10135   769.10020
         426           3           5   365.66628   684.09896
         426           4           1   422.31201   790.07342
         426           4           2   444.51877   831.61847
         426           4           3   430.63710   805.64824
         426           4           4   411.89832   770.59120
         426           4           5   363.89829   680.79135
         426           5           1   425.03188   795.16183
         426           5           2   447.39650   837.00221
         426           5           3   428.87028   802.34282
         426           5           4   409.77168   766.61262
         426           5           5   362.46562   678.11109
         427           1           1   400.60549   749.46425
         427           1           2   405.73379   759.05842
         427           1           3   437.09239   817.72498
         427           1           4   392.55632   734.40562
         427           1           5   356.29032   666.55815
         427           2           1   400.34873   748.98388
         427           2           2   406.86132   761.16783
         427           2           3   438.61446   820.57252
         427           2           4   396.39726   741.59136
         427           2           5   360.63126   674.67931
         427           3           1   402.39724   752.81631
         427           3           2   408.89795   764.97802
         427           3           3   442.14675   827.18082
         427           3           4   400.07279   748.46765
         427           3           5   363.17651   679.44104
         427           4           1   404.81263   757.33508
         427           4           2   416.44041   779.08868
         427           4           3   442.83442   828.46734
         427           4           4   403.48113   754.84407
         427           4           5   365.25776   683.33469
         427           5           1   407.26564   761.92425
         427           5           2   421.17690   787.94983
         427           5           3   442.90096   828.59183
         427           5           4   405.13851   757.94475
         427           5           5   366.36975   685.41505
         428           1           1   408.86350   764.91357
         428           1           2   416.44905   779.10484
         428           1           3   426.73253   798.34347
         428           1           4   379.65983   710.27851
         428           1           5   362.79620   678.72954
         428           2           1   407.58541   762.52248
         428           2           2   412.14635   771.05522
         428           2           3   428.54784   801.73959
         428           2           4   379.80926   710.55806
         428           2           5   361.99733   677.23500
         428           3           1   402.65503   753.29858
         428           3           2   407.51033   762.38201
         428           3           3   433.25927   810.55387
         428           3           4   383.29690   717.08284
         428           3           5   360.11152   673.70696
         428           4           1   399.95749   748.25194
         428           4           2   404.56630   756.87425
         428           4           3   435.71465   815.14747
         428           4           4   388.70630   727.20289
         428           4           5   357.49784   668.81721
         428           5           1   400.60549   749.46425
         428           5           2   405.73379   759.05842
         428           5           3   437.09239   817.72498
         428           5           4   392.55632   734.40562
         428           5           5   356.29032   666.55815
         429           1           1   426.75931   798.39356
         429           1           2   431.64270   807.52954
         429           1           3   415.94524   778.16230
         429           1           4   382.89085   716.32319
         429           1           5   361.82653   676.91546
         429           2           1   424.16405   793.53828
         429           2           2   429.45759   803.44159
         429           2           3   418.21506   782.40873
         429           2           4   382.31219   715.24062
         429           2           5   362.20799   677.62910
         429           3           1   420.40820   786.51172
         429           3           2   421.03519   787.68471
         429           3           3   422.33327   790.11320
         429           3           4   380.45849   711.77267
         429           3           5   365.83681   684.41800
         429           4           1   414.39728   775.26631
         429           4           2   418.91732   783.72255
         429           4           3   425.86545   796.72131
         429           4           4   379.62605   710.21532
         429           4           5   363.63164   680.29250
         429           5           1   408.86350   764.91357
         429           5           2   416.44905   779.10484
         429           5           3   426.73253   798.34347
         429           5           4   379.65983   710.27851
         429           5           5   362.79620   678.72954
         430           1           1   446.38457   835.10905
         430           1           2   446.48797   835.30250
         430           1           3   414.40858   775.28747
         430           1           4   389.48965   728.66842
         430           1           5   361.79870   676.86338
         430           2           1   444.04461   830.73140
         430           2           2   445.75713   833.93522
         430           2           3   413.37144   773.34714
         430           2           4   388.61417   727.03054
         430           2           5   359.79160   673.10845
         430           3           1   436.58908   816.78337
         430           3           2   442.89210   828.57525
         430           3           3   413.04546   772.73731
         430           3           4   385.34440   720.91336
         430           3           5   359.32558   672.23660
         430           4           1   429.97586   804.41118
         430           4           2   434.99700   813.80487
         430           4           3   413.43231   773.46102
         430           4           4   383.37461   717.22822
         430           4           5   360.48436   674.40449
         430           5           1   426.75931   798.39356
         430           5           2   431.64270   807.52954
         430           5           3   415.94524   778.16230
         430           5           4   382.89085   716.32319
         430           5           5   361.82653   676.91546
         431           1           1   462.91587   866.03630
         431           1           2   458.03829   856.91118
         431           1           3   428.45639   801.56850
         431           1           4   394.04682   737.19410
         431           1           5   373.14879   698.09746
         431           2           1   460.27835   861.10195
         431           2           2   456.14840   853.37551
         431           2           3   427.44561   799.67752
         431           2           4   391.46159   732.35757
         431           2           5   371.40054   694.82679
         431           3           1   454.08500   849.51524
         431           3           2   450.66663   843.12005
         431           3           3   424.38881   793.95875
         431           3           4   391.26591   731.99148
         431           3           5   367.91456   688.30511
         431           4           1   448.28393   838.66243
         431           4           2   447.14288   836.52774
         431           4           3   418.12036   782.23157
         431           4           4   390.29440   730.17396
         431           4           5   364.19527   681.34696
         431           5           1   446.38457   835.10905
         431           5           2   446.48797   835.30250
         431           5           3   414.40858   775.28747
         431           5           4   389.48965   728.66842
         431           5           5   361.79870   676.86338
         432           1           1   476.13388   890.76492
         432           1           2   476.35163   891.17230
         432           1           3   434.82569   813.48438
         432           1           4   412.27740   771.30040
         432           1           5   385.26954   720.77330
         432           2           1   474.13084   887.01758
         432           2           2   473.59661   886.01813
         432           2           3   434.92941   813.67843
         432           2           4   410.08439   767.19765
         432           2           5   383.59022   717.63159
         432           3           1   469.42009   878.20458
         432           3           2   467.46900   874.55441
         432           3           3   435.17026   814.12901
         432           3           4   403.73153   755.31253
         432           3           5   380.50372   711.85728
         432           4           1   465.35508   870.59963
         432           4           2   460.42378   861.37402
         432           4           3   430.29122   805.00115
         432           4           4   397.38913   743.44699
         432           4           5   374.86375   701.30587
         432           5           1   462.91587   866.03630
         432           5           2   458.03829   856.91118
         432           5           3   428.45639   801.56850
         432           5           4   394.04682   737.19410
         432           5           5   373.14879   698.09746
         433           1           1   486.27881   909.74434
         433           1           2   487.43374   911.90502
         433           1           3   446.71014   835.71814
         433           1           4   421.08075   787.76994
         433           1           5   388.75709   727.29792
         433           2           1   485.90109   909.03770
         433           2           2   486.44795   910.06077
         433           2           3   444.40981   831.41462
         433           2           4   419.68181   785.15277
         433           2           5   387.32435   724.61751
         433           3           1   482.30582   902.31156
         433           3           2   481.01673   899.89991
         433           3           3   437.58524   818.64702
         433           3           4   417.08957   780.30314
         433           3           5   387.42565   724.80702
         433           4           1   477.93228   894.12943
         433           4           2   478.46635   895.12858
         433           4           3   434.83447   813.50080
         433           4           4   414.03635   774.59109
         433           4           5   386.18912   722.49368
         433           5           1   476.13388   890.76492
         433           5           2   476.35163   891.17230
         433           5           3   434.82569   813.48438
         433           5           4   412.27740   771.30040
         433           5           5   385.26954   720.77330
         434           1           1   481.91323   901.57710
         434           1           2   486.70316   910.53823
         434           1           3   455.38123   851.94027
         434           1           4   433.09919   810.25439
         434           1           5   400.78570   749.80139
         434           2           1   484.06247   905.59796
         434           2           2   487.44829   911.93224
         434           2           3   454.75072   850.76070
         434           2           4   429.84986   804.17545
         434           2           5   399.50553   747.40642
         434           3           1   486.48930   910.13814
         434           3           2   488.53752   913.97001
         434           3           3   454.01912   849.39201
         434           3           4   425.75805   796.52038
         434           3           5   394.67008   738.36011
         434           4           1   486.68776   910.50943
         434           4           2   487.35001   911.74839
         434           4           3   449.53675   841.00626
         434           4           4   422.49711   790.41972
         434           4           5   391.04957   731.58676
         434           5           1   486.27881   909.74434
         434           5           2   487.43374   911.90502
         434           5           3   446.71014   835.71814
         434           5           4   421.08075   787.76994
         434           5           5   388.75709   727.29792
         435           1           1   467.14234   873.94329
         435           1           2   475.46927   889.52154
         435           1           3   465.73546   871.31127
         435           1           4   451.63997   844.94101
         435           1           5   411.39598   769.65140
         435           2           1   470.31933   879.88690
         435           2           2   477.99679   894.25010
         435           2           3   463.46193   867.05788
         435           2           4   448.72896   839.49501
         435           2           5   408.92290   765.02469
         435           3           1   475.83847   890.21226
         435           3           2   482.58294   902.83001
         435           3           3   459.73810   860.09123
         435           3           4   443.86182   830.38943
         435           3           5   406.43571   760.37159
         435           4           1   479.89608   897.80336
         435           4           2   486.22966   909.65239
         435           4           3   457.15302   855.25499
         435           4           4   437.12241   817.78114
         435           4           5   401.24374   750.65830
         435           5           1   481.91323   901.57710
         435           5           2   486.70316   910.53823
         435           5           3   455.38123   851.94027
         435           5           4   433.09919   810.25439
         435           5           5   400.78570   749.80139
         436           1           1   448.34934   838.78481
         436           1           2   461.67005   863.70558
         436           1           3   475.75797   890.06165
         436           1           4   469.05337   877.51851
         436           1           5   433.45092   810.91241
         436           2           1   452.74046   846.99985
         436           2           2   463.73418   867.56722
         436           2           3   475.50779   889.59362
         436           2           4   466.92259   873.53218
         436           2           5   428.81579   802.24088
         436           3           1   458.41580   857.61743
         436           3           2   468.73296   876.91907
         436           3           3   471.86874   882.78558
         436           3           4   460.93713   862.33441
         436           3           5   421.10221   787.81010
         436           4           1   463.93455   867.94206
         436           4           2   473.42757   885.70189
         436           4           3   468.10665   875.74736
         436           4           4   454.85989   850.96493
         436           4           5   414.58082   775.60970
         436           5           1   467.14234   873.94329
         436           5           2   475.46927   889.52154
         436           5           3   465.73546   871.31127
         436           5           4   451.63997   844.94101
         436           5           5   411.39598   769.65140
         437           1           1   424.04439   793.31441
         437           1           2   441.14944   825.31503
         437           1           3   478.07103   894.38900
         437           1           4   472.70973   884.35894
         437           1           5   446.27459   834.90330
         437           2           1   427.00709   798.85711
         437           2           2   444.92761   832.38334
         437           2           3   476.80788   892.02587
         437           2           4   473.04871   884.99311
         437           2           5   447.33523   836.88759
         437           3           1   434.02475   811.98596
         437           3           2   451.94235   845.50672
         437           3           3   474.56825   887.83590
         437           3           4   471.70212   882.47387
         437           3           5   444.50699   831.59644
         437           4           1   442.42119   827.69425
         437           4           2   459.26484   859.20584
         437           4           3   474.88478   888.42807
         437           4           4   470.01697   879.32123
         437           4           5   438.74376   820.81441
         437           5           1   448.34934   838.78481
         437           5           2   461.67005   863.70558
         437           5           3   475.75797   890.06165
         437           5           4   469.05337   877.51851
         437           5           5   433.45092   810.91241
         438           1           1   408.89826   764.97860
         438           1           2   421.98719   789.46574
         438           1           3   477.52794   893.37298
         438           1           4   462.77076   865.76482
         438           1           5   436.99426   817.54141
         438           2           1   413.28309   773.18186
         438           2           2   424.21414   793.63198
         438           2           3   478.97816   896.08609
         438           2           4   464.81784   869.59454
         438           2           5   438.59702   820.53990
         438           3           1   417.21906   780.54539
         438           3           2   429.87890   804.22978
         438           3           3   482.45320   902.58729
         438           3           4   467.74805   875.07647
         438           3           5   441.47867   825.93095
         438           4           1   422.10840   789.69251
         438           4           2   438.08221   819.57677
         438           4           3   480.28888   898.53821
         438           4           4   470.97088   881.10584
         438           4           5   444.15521   830.93831
         438           5           1   424.04439   793.31441
         438           5           2   441.14944   825.31503
         438           5           3   478.07103   894.38900
         438           5           4   472.70973   884.35894
         438           5           5   446.27459   834.90330
         439           1           1   382.95513   716.44344
         439           1           2   401.76022   751.62455
         439           1           3   460.63600   861.77106
         439           1           4   452.59836   846.73399
         439           1           5   438.57111   820.49141
         439           2           1   387.22582   724.43317
         439           2           2   405.17121   758.00592
         439           2           3   462.83311   865.88146
         439           2           4   452.95904   847.40877
         439           2           5   438.33193   820.04394
         439           3           1   396.03692   740.91723
         439           3           2   411.44070   769.73507
         439           3           3   467.97000   875.49170
         439           3           4   454.70651   850.67798
         439           3           5   437.90490   819.24506
         439           4           1   404.27559   756.33037
         439           4           2   419.39721   784.62033
         439           4           3   474.82133   888.30938
         439           4           4   459.73898   860.09288
         439           4           5   436.62008   816.84137
         439           5           1   408.89826   764.97860
         439           5           2   421.98719   789.46574
         439           5           3   477.52794   893.37298
         439           5           4   462.77076   865.76482
         439           5           5   436.99426   817.54141
         440           1           1   366.14058   684.98630
         440           1           2   388.53241   726.87758
         440           1           3   448.23639   838.57350
         440           1           4   462.24541   864.78198
         440           1           5   437.22226   817.96795
         440           2           1   367.68821   687.88166
         440           2           2   389.33191   728.37331
         440           2           3   450.49057   842.79069
         440           2           4   460.35679   861.24870
         440           2           5   436.99143   817.53611
         440           3           1   370.98827   694.05550
         440           3           2   393.17235   735.55812
         440           3           3   454.60771   850.49315
         440           3           4   455.99506   853.08865
         440           3           5   438.22842   819.85030
         440           4           1   378.74891   708.57432
         440           4           2   399.27504   746.97520
         440           4           3   458.41563   857.61712
         440           4           4   453.65861   848.71754
         440           4           5   438.67985   820.69486
         440           5           1   382.95513   716.44344
         440           5           2   401.76022   751.62455
         440           5           3   460.63600   861.77106
         440           5           4   452.59836   846.73399
         440           5           5   438.57111   820.49141
         441           1           1   371.00956   694.09532
         441           1           2   388.37229   726.57803
         441           1           3   434.56902   813.00418
         441           1           4   453.89060   849.15156
         441           1           5   432.29556   808.75093
         441           2           1   369.22850   690.76328
         441           2           2   388.18166   726.22139
         441           2           3   437.17232   817.87452
         441           2           4   457.40382   855.72419
         441           2           5   434.92985   813.67924
         441           3           1   366.37657   685.42779
         441           3           2   387.63456   725.19785
         441           3           3   442.55146   827.93798
         441           3           4   463.01040   866.21315
         441           3           5   435.18136   814.14978
         441           4           1   365.88878   684.51522
         441           4           2   389.27899   728.27431
         441           4           3   446.75849   835.80859
         441           4           4   462.75474   865.73484
         441           4           5   436.79616   817.17079
         441           5           1   366.14058   684.98630
         441           5           2   388.53241   726.87758
         441           5           3   448.23639   838.57350
         441           5           4   462.24541   864.78198
         441           5           5   437.22226   817.96795
         442           1           1   381.60216   713.91227
         442           1           2   390.61417   730.77220
         442           1           3   423.60161   792.48605
         442           1           4   421.20200   787.99679
         442           1           5   410.24261   767.49365
         442           2           1   380.05220   711.01255
         442           2           2   389.57985   728.83716
         442           2           3   426.14921   797.25216
         442           2           4   426.02440   797.01867
         442           2           5   415.22443   776.81377
         442           3           1   377.57353   706.37540
         442           3           2   388.33369   726.50581
         442           3           3   429.92262   804.31158
         442           3           4   435.67774   815.07842
         442           3           5   423.77114   792.80320
         442           4           1   373.41177   698.58946
         442           4           2   388.22981   726.31147
         442           4           3   432.16719   808.51078
         442           4           4   447.52626   837.24497
         442           4           5   428.52271   801.69259
         442           5           1   371.00956   694.09532
         442           5           2   388.37229   726.57803
         442           5           3   434.56902   813.00418
         442           5           4   453.89060   849.15156
         442           5           5   432.29556   808.75093
         443           1           1   393.42606   736.03277
         443           1           2   404.18531   756.16148
         443           1           3   415.78261   777.85804
         443           1           4   407.39048   762.15780
         443           1           5   386.89965   723.82296
         443           2           1   391.52254   732.47161
         443           2           2   401.33030   750.82024
         443           2           3   416.33595   778.89324
         443           2           4   409.07902   765.31676
         443           2           5   391.99337   733.35244
         443           3           1   389.69758   729.05742
         443           3           2   397.26556   743.21581
         443           3           3   415.58733   777.49270
         443           3           4   412.41048   771.54936
         443           3           5   401.05533   750.30581
         443           4           1   383.45936   717.38677
         443           4           2   391.92328   733.22132
         443           4           3   419.69943   785.18574
         443           4           4   418.12592   782.24197
         443           4           5   406.14876   759.83475
         443           5           1   381.60216   713.91227
         443           5           2   390.61417   730.77220
         443           5           3   423.60161   792.48605
         443           5           4   421.20200   787.99679
         443           5           5   410.24261   767.49365
         444           1           1   404.05398   755.91579
         444           1           2   414.43593   775.33864
         444           1           3   421.87497   789.25581
         444           1           4   398.19763   744.95956
         444           1           5   365.77633   684.30485
         444           2           1   402.65550   753.29946
         444           2           2   412.94314   772.54587
         444           2           3   419.95266   785.65948
         444           2           4   399.86246   748.07416
         444           2           5   367.90964   688.29591
         444           3           1   399.26340   746.95342
         444           3           2   409.86573   766.78857
         444           3           3   417.23742   780.57973
         444           3           4   403.01837   753.97833
         444           3           5   372.22975   696.37810
         444           4           1   395.53216   739.97292
         444           4           2   406.03994   759.63117
         444           4           3   417.22523   780.55694
         444           4           4   405.86392   759.30186
         444           4           5   383.40776   717.29025
         444           5           1   393.42606   736.03277
         444           5           2   404.18531   756.16148
         444           5           3   415.78261   777.85804
         444           5           4   407.39048   762.15780
         444           5           5   386.89965   723.82296
         445           1           1   382.00989   714.67505
         445           1           2   404.54483   756.83407
         445           1           3   448.01371   838.15690
         445           1           4   441.75360   826.44532
         445           1           5   420.34936   786.40164
         445           2           1   385.99660   722.13352
         445           2           2   404.43008   756.61940
         445           2           3   446.86272   836.00360
         445           2           4   440.89463   824.83832
         445           2           5   417.60820   781.27341
         445           3           1   390.69861   730.93017
         445           3           2   402.29114   752.61781
         445           3           3   447.53346   837.25843
         445           3           4   433.98580   811.91309
         445           3           5   411.15347   769.19771
         445           4           1   394.10762   737.30785
         445           4           2   403.54859   754.97028
         445           4           3   448.27870   838.65265
         445           4           4   425.94242   796.86531
         445           4           5   405.23135   758.11843
         445           5           1   393.11853   735.45742
         445           5           2   402.81364   753.59531
         445           5           3   448.29412   838.68151
         445           5           4   421.29256   788.16621
         445           5           5   401.10777   750.40393
         446           1           1   369.30169   690.90021
         446           1           2   405.43975   758.50832
         446           1           3   452.94426   847.38112
         446           1           4   440.52685   824.15026
         446           1           5   426.82902   798.52397
         446           2           1   369.18244   690.67710
         446           2           2   404.16697   756.12717
         446           2           3   454.34836   850.00795
         446           2           4   442.69793   828.21199
         446           2           5   426.33423   797.59831
         446           3           1   372.65106   697.16630
         446           3           2   405.09859   757.87007
         446           3           3   451.60522   844.87600
         446           3           4   443.10968   828.98229
         446           3           5   424.60497   794.36317
         446           4           1   378.02317   707.21659
         446           4           2   404.86073   757.42507
         446           4           3   449.24029   840.45163
         446           4           4   442.61258   828.05232
         446           4           5   423.08140   791.51281
         446           5           1   382.00989   714.67505
         446           5           2   404.54483   756.83407
         446           5           3   448.01371   838.15690
         446           5           4   441.75360   826.44532
         446           5           5   420.34936   786.40164
         447           1           1   377.47909   706.19871
         447           1           2   418.73599   783.38331
         447           1           3   453.27232   847.99487
         447           1           4   426.09661   797.15376
         447           1           5   428.57247   801.78567
         447           2           1   374.20486   700.07319
         447           2           2   415.42763   777.19394
         447           2           3   453.51177   848.44284
         447           2           4   427.89893   800.52559
         447           2           5   427.25183   799.31498
         447           3           1   371.24408   694.53408
         447           3           2   410.30446   767.60935
         447           3           3   451.33838   844.37679
         447           3           4   432.85164   809.79128
         447           3           5   428.60179   801.84052
         447           4           1   369.41291   691.10828
         447           4           2   406.22719   759.98149
         447           4           3   451.13837   844.00260
         447           4           4   438.35576   820.08854
         447           4           5   428.07095   800.84741
         447           5           1   369.30169   690.90021
         447           5           2   405.43975   758.50832
         447           5           3   452.94426   847.38112
         447           5           4   440.52685   824.15026
         447           5           5   426.82902   798.52397
         448           1           1   382.97626   716.48297
         448           1           2   441.60045   826.15878
         448           1           3   450.47694   842.76519
         448           1           4   425.31421   795.69002
         448           1           5   437.45310   818.39981
         448           2           1   383.66107   717.76415
         448           2           2   441.19156   825.39384
         448           2           3   450.66139   843.11026
         448           2           4   425.26777   795.60314
         448           2           5   437.06182   817.66779
         448           3           1   382.83037   716.21004
         448           3           2   434.61364   813.08768
         448           3           3   452.36153   846.29094
         448           3           4   423.41349   792.13412
         448           3           5   434.11166   812.14856
         448           4           1   380.75331   712.32422
         448           4           2   422.52829   790.47804
         448           4           3   452.70990   846.94268
         448           4           4   424.17906   793.56636
         448           4           5   429.89311   804.25637
         448           5           1   377.47909   706.19871
         448           5           2   418.73599   783.38331
         448           5           3   453.27232   847.99487
         448           5           4   426.09661   797.15376
         448           5           5   428.57247   801.78567
         449           1           1   393.32492   735.84355
         449           1           2   442.98670   828.75222
         449           1           3   447.97910   838.09215
         449           1           4   422.19848   789.86103
         449           1           5   425.03188   795.16183
         449           2           1   391.46809   732.36973
         449           2           2   444.94456   832.41505
         449           2           3   449.70840   841.32738
         449           2           4   423.14021   791.62284
         449           2           5   426.96861   798.78514
         449           3           1   385.45536   721.12095
         449           3           2   447.06152   836.37553
         449           3           3   450.75593   843.28712
         449           3           4   424.66311   794.47193
         449           3           5   433.23028   810.49963
         449           4           1   382.29144   715.20180
         449           4           2   443.83850   830.34580
         449           4           3   450.29250   842.42013
         449           4           4   425.29971   795.66290
         449           4           5   437.67644   818.81764
         449           5           1   382.97626   716.48297
         449           5           2   441.60045   826.15878
         449           5           3   450.47694   842.76519
         449           5           4   425.31421   795.69002
         449           5           5   437.45310   818.39981
         450           1           1   402.90317   753.76281
         450           1           2   430.91156   806.16172
         450           1           3   440.61054   824.30684
         450           1           4   412.77565   772.23253
         450           1           5   407.26564   761.92425
         450           2           1   402.77883   753.53019
         450           2           2   430.66438   805.69927
         450           2           3   441.89349   826.70702
         450           2           4   415.00962   776.41190
         450           2           5   409.71866   766.51342
         450           3           1   398.90548   746.28382
         450           3           2   433.36821   810.75769
         450           3           3   443.62263   829.94195
         450           3           4   418.48735   782.91814
         450           3           5   415.82293   777.93348
         450           4           1   395.18175   739.31736
         450           4           2   439.16072   821.59448
         450           4           3   446.24980   834.85692
         450           4           4   421.25675   788.09922
         450           4           5   422.31201   790.07342
         450           5           1   393.32492   735.84355
         450           5           2   442.98670   828.75222
         450           5           3   447.97910   838.09215
         450           5           4   422.19848   789.86103
         450           5           5   425.03188   795.16183
         451           1           1   406.04778   759.64584
         451           1           2   434.83334   813.49870
         451           1           3   433.77782   811.52399
         451           1           4   403.61358   755.09187
         451           1           5   400.60549   749.46425
         451           2           1   404.34631   756.46267
         451           2           2   431.32206   806.92969
         451           2           3   432.57105   809.26632
         451           2           4   404.12529   756.04920
         451           2           5   400.34873   748.98388
         451           3           1   403.17383   754.26917
         451           3           2   430.62419   805.62410
         451           3           3   435.83841   815.37900
         451           3           4   406.63327   760.74119
         451           3           5   402.39724   752.81631
         451           4           1   403.02751   753.99543
         451           4           2   430.61253   805.60228
         451           4           3   439.22471   821.71420
         451           4           4   410.24818   767.50406
         451           4           5   404.81263   757.33508
         451           5           1   402.90317   753.76281
         451           5           2   430.91156   806.16172
         451           5           3   440.61054   824.30684
         451           5           4   412.77565   772.23253
         451           5           5   407.26564   761.92425
         452           1           1   416.06351   778.38356
         452           1           2   440.75968   824.58586
         452           1           3   451.50890   844.69580
         452           1           4   403.54844   754.96999
         452           1           5   408.86350   764.91357
         452           2           1   413.54610   773.67390
         452           2           2   438.85359   821.01988
         452           2           3   446.93660   836.14181
         452           2           4   403.00313   753.94982
         452           2           5   407.58541   762.52248
         452           3           1   409.83817   766.73701
         452           3           2   437.86225   819.16527
         452           3           3   439.51426   822.25588
         452           3           4   402.10348   752.26672
         452           3           5   402.65503   753.29858
         452           4           1   407.03217   761.48747
         452           4           2   435.59029   814.91482
         452           4           3   434.61557   813.09127
         452           4           4   402.59203   753.18073
         452           4           5   399.95749   748.25194
         452           5           1   406.04778   759.64584
         452           5           2   434.83334   813.49870
         452           5           3   433.77782   811.52399
         452           5           4   403.61358   755.09187
         452           5           5   400.60549   749.46425
         453           1           1   424.61657   794.38487
         453           1           2   443.69477   830.07691
         453           1           3   471.32726   881.77257
         453           1           4   413.77420   774.10064
         453           1           5   426.75931   798.39356
         453           2           1   423.62981   792.53880
         453           2           2   443.82974   830.32941
         453           2           3   468.22456   875.96794
         453           2           4   411.75058   770.31480
         453           2           5   424.16405   793.53828
         453           3           1   422.24758   789.95288
         453           3           2   444.17941   830.98359
         453           3           3   464.08963   868.23220
         453           3           4   407.42838   762.22870
         453           3           5   420.40820   786.51172
         453           4           1   418.84930   783.59529
         453           4           2   442.64386   828.11084
         453           4           3   456.22395   853.51685
         453           4           4   404.78588   757.28503
         453           4           5   414.39728   775.26631
         453           5           1   416.06351   778.38356
         453           5           2   440.75968   824.58586
         453           5           3   451.50890   844.69580
         453           5           4   403.54844   754.96999
         453           5           5   408.86350   764.91357
         454           1           1   428.46160   801.57826
         454           1           2   454.77269   850.80179
         454           1           3   481.46526   900.73903
         454           1           4   429.11148   802.79407
         454           1           5   446.38457   835.10905
         454           2           1   426.39210   797.70657
         454           2           2   452.57777   846.69549
         454           2           3   479.12800   896.36640
         454           2           4   426.55647   798.01407
         454           2           5   444.04461   830.73140
         454           3           1   424.67670   794.49735
         454           3           2   448.68348   839.40993
         454           3           3   477.52827   893.37359
         454           3           4   420.25002   786.21579
         454           3           5   436.58908   816.78337
         454           4           1   424.29264   793.77884
         454           4           2   445.36365   833.19910
         454           4           3   474.55864   887.81791
         454           4           4   415.57813   777.47550
         454           4           5   429.97586   804.41118
         454           5           1   424.61657   794.38487
         454           5           2   443.69477   830.07691
         454           5           3   471.32726   881.77257
         454           5           4   413.77420   774.10064
         454           5           5   426.75931   798.39356
         455           1           1   439.78396   822.76046
         455           1           2   463.24887   866.65927
         455           1           3   485.09857   907.53633
         455           1           4   443.05976   828.88891
         455           1           5   462.91587   866.03630
         455           2           1   437.81802   819.08252
         455           2           2   461.63400   863.63813
         455           2           3   485.39648   908.09367
         455           2           4   440.99984   825.03516
         455           2           5   460.27835   861.10195
         455           3           1   436.71485   817.01866
         455           3           2   457.50247   855.90874
         455           3           3   486.63243   910.40591
         455           3           4   436.31140   816.26389
         455           3           5   454.08500   849.51524
         455           4           1   431.92724   808.06188
         455           4           2   456.08310   853.25336
         455           4           3   484.13264   905.72923
         455           4           4   431.27344   806.83873
         455           4           5   448.28393   838.66243
         455           5           1   428.46160   801.57826
         455           5           2   454.77269   850.80179
         455           5           3   481.46526   900.73903
         455           5           4   429.11148   802.79407
         455           5           5   446.38457   835.10905
         456           1           1   449.37914   840.71138
         456           1           2   467.35520   874.34151
         456           1           3   491.13586   918.83107
         456           1           4   459.69712   860.01457
         456           1           5   476.13388   890.76492
         456           2           1   449.39324   840.73776
         456           2           2   467.06595   873.80038
         456           2           3   489.99846   916.70318
         456           2           4   457.46502   855.83868
         456           2           5   474.13084   887.01758
         456           3           1   446.24010   834.83878
         456           3           2   465.01266   869.95903
         456           3           3   486.49482   910.14847
         456           3           4   450.41013   842.64019
         456           3           5   469.42009   878.20458
         456           4           1   442.18582   827.25393
         456           4           2   464.56039   869.11291
         456           4           3   484.91219   907.18763
         456           4           4   445.19845   832.89003
         456           4           5   465.35508   870.59963
         456           5           1   439.78396   822.76046
         456           5           2   463.24887   866.65927
         456           5           3   485.09857   907.53633
         456           5           4   443.05976   828.88891
         456           5           5   462.91587   866.03630
         457           1           1   446.77303   835.83581
         457           1           2   469.18331   877.76160
         457           1           3   491.15429   918.86554
         457           1           4   463.70830   867.51879
         457           1           5   486.27881   909.74434
         457           2           1   447.21651   836.66548
         457           2           2   468.52434   876.52879
         457           2           3   491.65668   919.80543
         457           2           4   462.32446   864.92986
         457           2           5   485.90109   909.03770
         457           3           1   447.25151   836.73095
         457           3           2   467.60306   874.80523
         457           3           3   492.23371   920.88496
         457           3           4   463.00097   866.19550
         457           3           5   482.30582   902.31156
         457           4           1   448.65286   839.35265
         457           4           2   467.13639   873.93216
         457           4           3   491.97147   920.39434
         457           4           4   461.29139   862.99717
         457           4           5   477.93228   894.12943
         457           5           1   449.37914   840.71138
         457           5           2   467.35520   874.34151
         457           5           3   491.13586   918.83107
         457           5           4   459.69712   860.01457
         457           5           5   476.13388   890.76492
         458           1           1   434.41672   812.71927
         458           1           2   463.13999   866.45559
         458           1           3   474.60751   887.90935
         458           1           4   465.20025   870.30997
         458           1           5   481.91323   901.57710
         458           2           1   438.27972   819.94627
         458           2           2   466.02239   871.84805
         458           2           3   479.25092   896.59638
         458           2           4   466.82835   873.35587
         458           2           5   484.06247   905.59796
         458           3           1   443.53817   829.78393
         458           3           2   470.03316   879.35152
         458           3           3   486.87524   910.86016
         458           3           4   465.80967   871.45009
         458           3           5   486.48930   910.13814
         458           4           1   446.09407   834.56559
         458           4           2   469.86843   879.04334
         458           4           3   490.07733   916.85073
         458           4           4   465.03626   870.00317
         458           4           5   486.68776   910.50943
         458           5           1   446.77303   835.83581
         458           5           2   469.18331   877.76160
         458           5           3   491.15429   918.86554
         458           5           4   463.70830   867.51879
         458           5           5   486.27881   909.74434
         459           1           1   407.02623   761.47635
         459           1           2   428.09577   800.89384
         459           1           3   450.31683   842.46564
         459           1           4   448.55136   839.16275
         459           1           5   467.14234   873.94329
         459           2           1   411.68489   770.19190
         459           2           2   434.04410   812.02215
         459           2           3   455.05175   851.32387
         459           2           4   450.21891   842.28245
         459           2           5   470.31933   879.88690
         459           3           1   422.47202   790.37277
         459           3           2   447.64099   837.45960
         459           3           3   462.66102   865.55950
         459           3           4   456.40694   853.85920
         459           3           5   475.83847   890.21226
         459           4           1   431.20286   806.70669
         459           4           2   459.04923   858.80248
         459           4           3   470.45533   880.14133
         459           4           4   462.03582   864.38986
         459           4           5   479.89608   897.80336
         459           5           1   434.41672   812.71927
         459           5           2   463.13999   866.45559
         459           5           3   474.60751   887.90935
         459           5           4   465.20025   870.30997
         459           5           5   481.91323   901.57710
         460           1           1   385.56913   721.33379
         460           1           2   396.45764   741.70432
         460           1           3   423.23713   791.80417
         460           1           4   440.80689   824.67418
         460           1           5   448.34934   838.78481
         460           2           1   388.63184   727.06359
         460           2           2   401.29382   750.75200
         460           2           3   428.27187   801.22331
         460           2           4   442.81630   828.43343
         460           2           5   452.74046   846.99985
         460           3           1   394.84261   738.68288
         460           3           2   411.49773   769.84177
         460           3           3   438.05938   819.53405
         460           3           4   446.26182   834.87943
         460           3           5   458.41580   857.61743
         460           4           1   402.30362   752.64115
         460           4           2   422.41868   790.27299
         460           4           3   446.49429   835.31432
         460           4           4   448.31997   838.72986
         460           4           5   463.93455   867.94206
         460           5           1   407.02623   761.47635
         460           5           2   428.09577   800.89384
         460           5           3   450.31683   842.46564
         460           5           4   448.55136   839.16275
         460           5           5   467.14234   873.94329
         461           1           1   363.64571   680.31883
         461           1           2   373.90265   699.50781
         461           1           3   401.25815   750.68526
         461           1           4   418.89241   783.67594
         461           1           5   424.04439   793.31441
         461           2           1   368.06835   688.59284
         461           2           2   377.38355   706.01997
         461           2           3   405.15031   757.96683
         461           2           4   424.41557   794.00882
         461           2           5   427.00709   798.85711
         461           3           1   377.84763   706.88819
         461           3           2   384.66867   719.64918
         461           3           3   411.85549   770.51106
         461           3           4   433.37436   810.76919
         461           3           5   434.02475   811.98596
         461           4           1   382.74928   716.05834
         461           4           2   392.27590   733.88101
         461           4           3   419.23626   784.31923
         461           4           4   438.57944   820.50700
         461           4           5   442.42119   827.69425
         461           5           1   385.56913   721.33379
         461           5           2   396.45764   741.70432
         461           5           3   423.23713   791.80417
         461           5           4   440.80689   824.67418
         461           5           5   448.34934   838.78481
         462           1           1   347.40324   649.93195
         462           1           2   350.50880   655.74192
         462           1           3   385.93261   722.01381
         462           1           4   387.36658   724.69651
         462           1           5   408.89826   764.97860
         462           2           1   350.22971   655.21979
         462           2           2   355.48699   665.05527
         462           2           3   389.16240   728.05619
         462           2           4   392.41716   734.14528
         462           2           5   413.28309   773.18186
         462           3           1   356.30273   666.58137
         462           3           2   362.80705   678.74984
         462           3           3   395.00511   738.98689
         462           3           4   401.28022   750.72655
         462           3           5   417.21906   780.54539
         462           4           1   360.28470   674.03095
         462           4           2   370.50475   693.15091
         462           4           3   399.11896   746.68320
         462           4           4   412.21966   771.19237
         462           4           5   422.10840   789.69251
         462           5           1   363.64571   680.31883
         462           5           2   373.90265   699.50781
         462           5           3   401.25815   750.68526
         462           5           4   418.89241   783.67594
         462           5           5   424.04439   793.31441
         463           1           1   332.77155   622.55857
         463           1           2   319.77599   598.24610
         463           1           3   363.57615   680.18869
         463           1           4   357.40994   668.65278
         463           1           5   382.95513   716.44344
         463           2           1   334.31062   625.43790
         463           2           2   323.71369   605.61286
         463           2           3   368.11393   688.67810
         463           2           4   361.71824   676.71286
         463           2           5   387.22582   724.43317
         463           3           1   336.38690   629.32226
         463           3           2   333.74267   624.37537
         463           3           3   375.68894   702.84965
         463           3           4   370.91040   693.90982
         463           3           5   396.03692   740.91723
         463           4           1   343.26014   642.18092
         463           4           2   344.62927   644.74232
         463           4           3   382.46845   715.53295
         463           4           4   381.57925   713.86941
         463           4           5   404.27559   756.33037
         463           5           1   347.40324   649.93195
         463           5           2   350.50880   655.74192
         463           5           3   385.93261   722.01381
         463           5           4   387.36658   724.69651
         463           5           5   408.89826   764.97860
         464           1           1   325.89687   609.69721
         464           1           2   305.24965   571.06981
         464           1           3   327.50960   612.71436
         464           1           4   342.14163   640.08838
         464           1           5   366.14058   684.98630
         464           2           1   327.48066   612.66021
         464           2           2   307.06675   574.46928
         464           2           3   332.04142   621.19263
         464           2           4   344.83245   645.12244
         464           2           5   367.68821   687.88166
         464           3           1   330.14840   617.65110
         464           3           2   311.03444   581.89216
         464           3           3   343.41930   642.47868
         464           3           4   350.93723   656.54345
         464           3           5   370.98827   694.05550
         464           4           1   331.61179   620.38885
         464           4           2   316.52118   592.15691
         464           4           3   356.69295   667.31141
         464           4           4   355.02606   664.19293
         464           4           5   378.74891   708.57432
         464           5           1   332.77155   622.55857
         464           5           2   319.77599   598.24610
         464           5           3   363.57615   680.18869
         464           5           4   357.40994   668.65278
         464           5           5   382.95513   716.44344
         465           1           1   308.04012   576.29030
         465           1           2   300.77643   562.70118
         465           1           3   324.23721   606.59227
         465           1           4   347.05072   649.27244
         465           1           5   371.00956   694.09532
         465           2           1   311.74796   583.22703
         465           2           2   301.45167   563.96443
         465           2           3   322.49201   603.32731
         465           2           4   344.99687   645.43005
         465           2           5   369.22850   690.76328
         465           3           1   319.98020   598.62815
         465           3           2   302.69017   566.28145
         465           3           3   320.03251   598.72601
         465           3           4   340.56086   637.13103
         465           3           5   366.37657   685.42779
         465           4           1   323.91518   605.98982
         465           4           2   304.07783   568.87753
         465           4           3   324.97783   607.97785
         465           4           4   341.19129   638.31045
         465           4           5   365.88878   684.51522
         465           5           1   325.89687   609.69721
         465           5           2   305.24965   571.06981
         465           5           3   327.50960   612.71436
         465           5           4   342.14163   640.08838
         465           5           5   366.14058   684.98630
         466           1           1   314.97298   589.26050
         466           1           2   302.73996   566.37460
         466           1           3   327.75321   613.17011
         466           1           4   367.25471   687.07065
         466           1           5   381.60216   713.91227
         466           2           1   312.73679   585.07695
         466           2           2   303.34806   567.51225
         466           2           3   327.99641   613.62509
         466           2           4   363.13650   679.36619
         466           2           5   380.05220   711.01255
         466           3           1   306.86816   574.09776
         466           3           2   302.01697   565.02201
         466           3           3   327.41933   612.54548
         466           3           4   354.18426   662.61808
         466           3           5   377.57353   706.37540
         466           4           1   307.50180   575.28319
         466           4           2   302.07197   565.12492
         466           4           3   325.70486   609.33799
         466           4           4   349.40879   653.68398
         466           4           5   373.41177   698.58946
         466           5           1   308.04012   576.29030
         466           5           2   300.77643   562.70118
         466           5           3   324.23721   606.59227
         466           5           4   347.05072   649.27244
         466           5           5   371.00956   694.09532
         467           1           1   330.79928   618.86878
         467           1           2   299.06179   559.49337
         467           1           3   342.16470   640.13155
         467           1           4   394.50240   738.04641
         467           1           5   393.42606   736.03277
         467           2           1   327.26108   612.24941
         467           2           2   297.57291   556.70794
         467           2           3   338.48823   633.25350
         467           2           4   391.58754   732.59320
         467           2           5   391.52254   732.47161
         467           3           1   321.03084   600.59371
         467           3           2   297.34823   556.28760
         467           3           3   332.24380   621.57124
         467           3           4   386.00574   722.15062
         467           3           5   389.69758   729.05742
         467           4           1   316.97043   592.99738
         467           4           2   301.69933   564.42776
         467           4           3   329.23864   615.94909
         467           4           4   373.85217   699.41336
         467           4           5   383.45936   717.38677
         467           5           1   314.97298   589.26050
         467           5           2   302.73996   566.37460
         467           5           3   327.75321   613.17011
         467           5           4   367.25471   687.07065
         467           5           5   381.60216   713.91227
         468           1           1   343.53674   642.69840
         468           1           2   318.89704   596.60174
         468           1           3   352.19275   658.89230
         468           1           4   414.76339   775.95126
         468           1           5   404.05398   755.91579
         468           2           1   341.96447   639.75695
         468           2           2   314.16883   587.75607
         468           2           3   353.37249   661.09940
         468           2           4   410.68695   768.32492
         468           2           5   402.65550   753.29946
         468           3           1   338.51398   633.30166
         468           3           2   306.06753   572.59992
         468           3           3   354.70938   663.60049
         468           3           4   403.27615   754.46060
         468           3           5   399.26340   746.95342
         468           4           1   333.54458   624.00476
         468           4           2   299.87743   561.01931
         468           4           3   346.98628   649.15189
         468           4           4   397.33209   743.34027
         468           4           5   395.53216   739.97292
         468           5           1   330.79928   618.86878
         468           5           2   299.06179   559.49337
         468           5           3   342.16470   640.13155
         468           5           4   394.50240   738.04641
         468           5           5   393.42606   736.03277
         469           1           1   210.25841   393.35746
         469           1           2   219.82534   411.25556
         469           1           3   283.27029   529.95019
         469           1           4   360.89897   675.18014
         469           1           5   382.00989   714.67505
         469           2           1   210.50323   393.81549
         469           2           2   218.04118   407.91769
         469           2           3   279.85415   523.55918
         469           2           4   359.71685   672.96860
         469           2           5   385.99660   722.13352
         469           3           1   209.67354   392.26327
         469           3           2   215.59219   403.33606
         469           3           3   275.92618   516.21062
         469           3           4   359.49564   672.55476
         469           3           5   390.69861   730.93017
         469           4           1   207.54984   388.29020
         469           4           2   214.64809   401.56980
         469           4           3   275.23301   514.91382
         469           4           4   357.94211   669.64836
         469           4           5   394.10762   737.30785
         469           5           1   205.02956   383.57518
         469           5           2   213.89943   400.16918
         469           5           3   278.72889   521.45401
         469           5           4   358.59178   670.86378
         469           5           5   393.11853   735.45742
         470           1           1   197.17707   368.88453
         470           1           2   223.99534   419.05691
         470           1           3   298.94257   559.27034
         470           1           4   364.68099   682.25566
         470           1           5   369.30169   690.90021
         470           2           1   200.77310   375.61207
         470           2           2   223.85424   418.79294
         470           2           3   294.86040   551.63329
         470           2           4   367.10607   686.79256
         470           2           5   369.18244   690.67710
         470           3           1   206.24169   385.84288
         470           3           2   223.17487   417.52194
         470           3           3   291.03854   544.48325
         470           3           4   364.39131   681.71372
         470           3           5   372.65106   697.16630
         470           4           1   210.01358   392.89944
         470           4           2   221.21196   413.84967
         470           4           3   286.68643   536.34121
         470           4           4   363.12280   679.34056
         470           4           5   378.02317   707.21659
         470           5           1   210.25841   393.35746
         470           5           2   219.82534   411.25556
         470           5           3   283.27029   529.95019
         470           5           4   360.89897   675.18014
         470           5           5   382.00989   714.67505
         471           1           1   181.96193   340.41961
         471           1           2   226.72984   424.17269
         471           1           3   317.79509   594.54017
         471           1           4   363.67722   680.37778
         471           1           5   377.47909   706.19871
         471           2           1   184.81301   345.75348
         471           2           2   226.93539   424.55724
         471           2           3   314.90442   589.13223
         471           2           4   361.34625   676.01693
         471           2           5   374.20486   700.07319
         471           3           1   188.78326   353.18114
         471           3           2   226.06037   422.92023
         471           3           3   309.30387   578.65455
         471           3           4   361.51404   676.33084
         471           3           5   371.24408   694.53408
         471           4           1   193.58105   362.15698
         471           4           2   225.57078   422.00428
         471           4           3   303.02475   566.90739
         471           4           4   362.25591   677.71875
         471           4           5   369.41291   691.10828
         471           5           1   197.17707   368.88453
         471           5           2   223.99534   419.05691
         471           5           3   298.94257   559.27034
         471           5           4   364.68099   682.25566
         471           5           5   369.30169   690.90021
         472           1           1   174.78828   326.99893
         472           1           2   221.83719   415.01938
         472           1           3   337.03095   630.52717
         472           1           4   367.95813   688.38663
         472           1           5   382.97626   716.48297
         472           2           1   174.73301   326.89552
         472           2           2   222.14485   415.59495
         472           2           3   336.95956   630.39361
         472           2           4   367.92642   688.32731
         472           2           5   383.66107   717.76415
         472           3           1   176.14059   329.52887
         472           3           2   224.79044   420.54441
         472           3           3   328.50707   614.58045
         472           3           4   367.11940   686.81750
         472           3           5   382.83037   716.21004
         472           4           1   179.11086   335.08574
         472           4           2   226.42718   423.60646
         472           4           3   320.68576   599.94812
         472           4           4   366.00819   684.73863
         472           4           5   380.75331   712.32422
         472           5           1   181.96193   340.41961
         472           5           2   226.72984   424.17269
         472           5           3   317.79509   594.54017
         472           5           4   363.67722   680.37778
         472           5           5   377.47909   706.19871
         473           1           1   181.11126   338.82815
         473           1           2   228.50967   427.50245
         473           1           3   335.49934   627.66179
         473           1           4   368.88684   690.12408
         473           1           5   393.32492   735.84355
         473           2           1   180.47097   337.63026
         473           2           2   224.61319   420.21281
         473           2           3   334.93464   626.60533
         473           2           4   366.98769   686.57110
         473           2           5   391.46809   732.36973
         473           3           1   177.03586   331.20377
         473           3           2   221.94564   415.22227
         473           3           3   336.22972   629.02821
         473           3           4   366.94333   686.48812
         473           3           5   385.45536   721.12095
         473           4           1   174.84355   327.10233
         473           4           2   221.44440   414.28454
         473           4           3   337.10234   630.66073
         473           4           4   368.35875   689.13611
         473           4           5   382.29144   715.20180
         473           5           1   174.78828   326.99893
         473           5           2   221.83719   415.01938
         473           5           3   337.03095   630.52717
         473           5           4   367.95813   688.38663
         473           5           5   382.97626   716.48297
         474           1           1   189.30649   354.16001
         474           1           2   258.67052   483.92823
         474           1           3   348.08689   651.21094
         474           1           4   379.69896   710.35171
         474           1           5   402.90317   753.76281
         474           2           1   183.51431   343.32384
         474           2           2   252.48802   472.36183
         474           2           3   344.29481   644.11661
         474           2           4   378.63245   708.35645
         474           2           5   402.77883   753.53019
         474           3           1   182.61841   341.64775
         474           3           2   241.25052   451.33840
         474           3           3   339.41603   634.98925
         474           3           4   374.52176   700.66606
         474           3           5   398.90548   746.28382
         474           4           1   181.75156   340.02604
         474           4           2   231.59971   433.28339
         474           4           3   336.02676   628.64851
         474           4           4   370.78598   693.67706
         474           4           5   395.18175   739.31736
         474           5           1   181.11126   338.82815
         474           5           2   228.50967   427.50245
         474           5           3   335.49934   627.66179
         474           5           4   368.88684   690.12408
         474           5           5   393.32492   735.84355
         475           1           1   228.13166   426.79525
         475           1           2   280.40773   524.59483
         475           1           3   356.59186   667.12229
         475           1           4   386.90154   723.82651
         475           1           5   406.04778   759.64584
         475           2           1   222.94507   417.09204
         475           2           2   277.43424   519.03194
         475           2           3   357.82467   669.42866
         475           2           4   383.41857   717.31046
         475           2           5   404.34631   756.46267
         475           3           1   208.14279   389.39950
         475           3           2   271.78149   508.45662
         475           3           3   356.19221   666.37460
         475           3           4   380.98065   712.74954
         475           3           5   403.17383   754.26917
         475           4           1   195.09867   364.99618
         475           4           2   262.88626   491.81515
         475           4           3   351.96130   658.45929
         475           4           4   380.76547   712.34697
         475           4           5   403.02751   753.99543
         475           5           1   189.30649   354.16001
         475           5           2   258.67052   483.92823
         475           5           3   348.08689   651.21094
         475           5           4   379.69896   710.35171
         475           5           5   402.90317   753.76281
         476           1           1   250.77943   469.16535
         476           1           2   284.85746   532.91951
         476           1           3   350.94732   656.56231
         476           1           4   405.65450   758.91008
         476           1           5   416.06351   778.38356
         476           2           1   248.35587   464.63129
         476           2           2   285.20384   533.56753
         476           2           3   349.87667   654.55931
         476           2           4   403.26092   754.43210
         476           2           5   413.54610   773.67390
         476           3           1   241.57067   451.93734
         476           3           2   286.34118   535.69529
         476           3           3   352.77836   659.98787
         476           3           4   397.25344   743.19314
         476           3           5   409.83817   766.73701
         476           4           1   233.30365   436.47116
         476           4           2   283.38117   530.15763
         476           4           3   355.41057   664.91230
         476           4           4   390.46335   730.49003
         476           4           5   407.03217   761.48747
         476           5           1   228.13166   426.79525
         476           5           2   280.40773   524.59483
         476           5           3   356.59186   667.12229
         476           5           4   386.90154   723.82651
         476           5           5   406.04778   759.64584
         477           1           1   265.88902   497.43280
         477           1           2   287.14286   537.19509
         477           1           3   359.29509   672.17957
         477           1           4   420.96439   787.55226
         477           1           5   424.61657   794.38487
         477           2           1   264.24040   494.34852
         477           2           2   284.19415   531.67856
         477           2           3   358.15695   670.05031
         477           2           4   418.24966   782.47346
         477           2           5   423.62981   792.53880
         477           3           1   258.28906   483.21459
         477           3           2   283.59775   530.56281
         477           3           3   354.95827   664.06611
         477           3           4   413.96948   774.46598
         477           3           5   422.24758   789.95288
         477           4           1   253.12392   473.55149
         477           4           2   284.71185   532.64711
         477           4           3   352.18653   658.88067
         477           4           4   408.62545   764.46821
         477           4           5   418.84930   783.59529
         477           5           1   250.77943   469.16535
         477           5           2   284.85746   532.91951
         477           5           3   350.94732   656.56231
         477           5           4   405.65450   758.91008
         477           5           5   416.06351   778.38356
         478           1           1   280.19571   524.19817
         478           1           2   296.60531   554.89772
         478           1           3   362.13826   677.49865
         478           1           4   426.91505   798.68492
         478           1           5   428.46160   801.57826
         478           2           1   277.79563   519.70803
         478           2           2   297.13025   555.87980
         478           2           3   361.84834   676.95625
         478           2           4   425.65578   796.32905
         478           2           5   426.39210   797.70657
         478           3           1   271.60723   508.13060
         478           3           2   291.70260   545.72560
         478           3           3   361.77035   676.81035
         478           3           4   424.77673   794.68449
         478           3           5   424.67670   794.49735
         478           4           1   267.32944   500.12760
         478           4           2   288.86977   540.42586
         478           4           3   360.55424   674.53522
         478           4           4   422.76517   790.92121
         478           4           5   424.29264   793.77884
         478           5           1   265.88902   497.43280
         478           5           2   287.14286   537.19509
         478           5           3   359.29509   672.17957
         478           5           4   420.96439   787.55226
         478           5           5   424.61657   794.38487
         479           1           1   288.60767   539.93550
         479           1           2   292.79575   547.77070
         479           1           3   361.94723   677.14126
         479           1           4   431.20821   806.71668
         479           1           5   439.78396   822.76046
         479           2           1   287.52159   537.90365
         479           2           2   292.88123   547.93060
         479           2           3   362.11946   677.46347
         479           2           4   430.37097   805.15036
         479           2           5   437.81802   819.08252
         479           3           1   285.63404   534.37235
         479           3           2   293.63735   549.34519
         479           3           3   362.70107   678.55157
         479           3           4   429.89402   804.25806
         479           3           5   436.71485   817.01866
         479           4           1   282.40471   528.33083
         479           4           2   295.33112   552.51393
         479           4           3   362.52057   678.21388
         479           4           4   428.06819   800.84225
         479           4           5   431.92724   808.06188
         479           5           1   280.19571   524.19817
         479           5           2   296.60531   554.89772
         479           5           3   362.13826   677.49865
         479           5           4   426.91505   798.68492
         479           5           5   428.46160   801.57826
         480           1           1   288.94752   540.57132
         480           1           2   296.27502   554.27981
         480           1           3   355.88902   665.80739
         480           1           4   433.88157   811.71809
         480           1           5   449.37914   840.71138
         480           2           1   289.91241   542.37646
         480           2           2   295.61463   553.04433
         480           2           3   357.01265   667.90951
         480           2           4   435.22301   814.22769
         480           2           5   449.39324   840.73776
         480           3           1   290.71167   543.87174
         480           3           2   293.71042   549.48189
         480           3           3   359.20764   672.01596
         480           3           4   435.19667   814.17842
         480           3           5   446.24010   834.83878
         480           4           1   289.72220   542.02060
         480           4           2   292.80969   547.79676
         480           4           3   361.03157   675.42823
         480           4           4   432.22990   808.62810
         480           4           5   442.18582   827.25393
         480           5           1   288.60767   539.93550
         480           5           2   292.79575   547.77070
         480           5           3   361.94723   677.14126
         480           5           4   431.20821   806.71668
         480           5           5   439.78396   822.76046
         481           1           1   284.23486   531.75473
         481           1           2   289.79487   542.15656
         481           1           3   352.23347   658.96848
         481           1           4   421.24789   788.08264
         481           1           5   446.77303   835.83581
         481           2           1   285.26066   533.67382
         481           2           2   291.65527   545.63704
         481           2           3   354.28790   662.81197
         481           2           4   424.20032   793.60613
         481           2           5   447.21651   836.66548
         481           3           1   286.02034   535.09507
         481           3           2   292.61431   547.43125
         481           3           3   353.68275   661.67984
         481           3           4   429.02581   802.63380
         481           3           5   447.25151   836.73095
         481           4           1   287.75199   538.33467
         481           4           2   295.01027   551.91367
         481           4           3   354.94363   664.03874
         481           4           4   431.96472   808.13199
         481           4           5   448.65286   839.35265
         481           5           1   288.94752   540.57132
         481           5           2   296.27502   554.27981
         481           5           3   355.88902   665.80739
         481           5           4   433.88157   811.71809
         481           5           5   449.37914   840.71138
         482           1           1   280.90329   525.52194
         482           1           2   278.75655   521.50574
         482           1           3   329.46143   616.36589
         482           1           4   396.71409   742.18410
         482           1           5   434.41672   812.71927
         482           2           1   282.03004   527.62989
         482           2           2   279.89698   523.63930
         482           2           3   333.00991   623.00449
         482           2           4   403.45424   754.79378
         482           2           5   438.27972   819.94627
         482           3           1   281.33101   526.32213
         482           3           2   283.82949   530.99636
         482           3           3   341.69378   639.25052
         482           3           4   412.52659   771.76659
         482           3           5   443.53817   829.78393
         482           4           1   282.86275   529.18776
         482           4           2   286.96617   536.86455
         482           4           3   348.86388   652.66456
         482           4           4   418.07004   782.13743
         482           4           5   446.09407   834.56559
         482           5           1   284.23486   531.75473
         482           5           2   289.79487   542.15656
         482           5           3   352.23347   658.96848
         482           5           4   421.24789   788.08264
         482           5           5   446.77303   835.83581
         483           1           1   273.94723   512.50834
         483           1           2   275.83011   516.03089
         483           1           3   320.23882   599.11198
         483           1           4   367.97705   688.42202
         483           1           5   407.02623   761.47635
         483           2           1   273.95809   512.52866
         483           2           2   275.28548   515.01197
         483           2           3   319.99776   598.66099
         483           2           4   372.22970   696.37801
         483           2           5   411.68489   770.19190
         483           3           1   275.37018   515.17043
         483           3           2   275.45775   515.33425
         483           3           3   321.41782   601.31768
         483           3           4   378.43858   707.99376
         483           3           5   422.47202   790.37277
         483           4           1   278.71554   521.42903
         483           4           2   277.97677   520.04691
         483           4           3   326.20178   610.26765
         483           4           4   389.65547   728.97864
         483           4           5   431.20286   806.70669
         483           5           1   280.90329   525.52194
         483           5           2   278.75655   521.50574
         483           5           3   329.46143   616.36589
         483           5           4   396.71409   742.18410
         483           5           5   434.41672   812.71927
         484           1           1   281.97066   527.51880
         484           1           2   275.90979   516.17996
         484           1           3   327.09284   611.93467
         484           1           4   352.02261   658.57401
         484           1           5   385.56913   721.33379
         484           2           1   279.78665   523.43290
         484           2           2   275.82039   516.01270
         484           2           3   325.53798   609.02580
         484           2           4   354.08212   662.42699
         484           2           5   388.63184   727.06359
         484           3           1   276.39441   517.08659
         484           3           2   276.46272   517.21440
         484           3           3   322.34935   603.06041
         484           3           4   360.52358   674.47786
         484           3           5   394.84261   738.68288
         484           4           1   274.59657   513.72314
         484           4           2   276.39161   517.08136
         484           4           3   320.72638   600.02412
         484           4           4   364.98952   682.83286
         484           4           5   402.30362   752.64115
         484           5           1   273.94723   512.50834
         484           5           2   275.83011   516.03089
         484           5           3   320.23882   599.11198
         484           5           4   367.97705   688.42202
         484           5           5   407.02623   761.47635
         485           1           1   302.07305   565.12693
         485           1           2   292.14996   546.56253
         485           1           3   327.52816   612.74908
         485           1           4   355.85939   665.75195
         485           1           5   363.64571   680.31883
         485           2           1   298.36804   558.19549
         485           2           2   285.82513   534.72985
         485           2           3   329.33443   616.12831
         485           2           4   355.09217   664.31661
         485           2           5   368.06835   688.59284
         485           3           1   290.30469   543.11035
         485           3           2   278.92606   521.82288
         485           3           3   331.02066   619.28295
         485           3           4   350.81638   656.31735
         485           3           5   377.84763   706.88819
         485           4           1   284.60316   532.44377
         485           4           2   276.51300   517.30846
         485           4           3   328.85037   615.22271
         485           4           4   351.58754   657.76005
         485           4           5   382.74928   716.05834
         485           5           1   281.97066   527.51880
         485           5           2   275.90979   516.17996
         485           5           3   327.09284   611.93467
         485           5           4   352.02261   658.57401
         485           5           5   385.56913   721.33379
         486           1           1   319.00585   596.80530
         486           1           2   317.52362   594.03229
         486           1           3   322.32782   603.02013
         486           1           4   359.69741   672.93224
         486           1           5   347.40324   649.93195
         486           2           1   315.96311   591.11286
         486           2           2   314.25350   587.91447
         486           2           3   320.95785   600.45716
         486           2           4   360.39762   674.24221
         486           2           5   350.22971   655.21979
         486           3           1   310.49867   580.88983
         486           3           2   305.47700   571.49515
         486           3           3   319.81756   598.32387
         486           3           4   360.81847   675.02954
         486           3           5   356.30273   666.58137
         486           4           1   304.98691   570.57826
         486           4           2   297.25953   556.12165
         486           4           3   324.22876   606.57647
         486           4           4   358.00032   669.75727
         486           4           5   360.28470   674.03095
         486           5           1   302.07305   565.12693
         486           5           2   292.14996   546.56253
         486           5           3   327.52816   612.74908
         486           5           4   355.85939   665.75195
         486           5           5   363.64571   680.31883
         487           1           1   334.66189   626.09507
         487           1           2   340.45166   636.92673
         487           1           3   336.51845   629.56837
         487           1           4   353.39724   661.14570
         487           1           5   332.77155   622.55857
         487           2           1   332.56770   622.17720
         487           2           2   336.32967   629.21520
         487           2           3   333.19383   623.34857
         487           2           4   355.39835   664.88943
         487           2           5   334.31062   625.43790
         487           3           1   328.32047   614.23135
         487           3           2   328.17785   613.96455
         487           3           3   327.17563   612.08956
         487           3           4   358.95299   671.53954
         487           3           5   336.38690   629.32226
         487           4           1   322.34465   603.05162
         487           4           2   321.13234   600.78359
         487           4           3   323.81442   605.80131
         487           4           4   359.41337   672.40084
         487           4           5   343.26014   642.18092
         487           5           1   319.00585   596.80530
         487           5           2   317.52362   594.03229
         487           5           3   322.32782   603.02013
         487           5           4   359.69741   672.93224
         487           5           5   347.40324   649.93195
         488           1           1   344.72882   644.92857
         488           1           2   348.29228   651.59520
         488           1           3   362.54543   678.26039
         488           1           4   358.59452   670.86891
         488           1           5   325.89687   609.69721
         488           2           1   342.83963   641.39422
         488           2           2   347.37679   649.88247
         488           2           3   358.52098   670.73134
         488           2           4   357.12739   668.12416
         488           2           5   327.48066   612.66021
         488           3           1   339.68146   635.48583
         488           3           2   345.48791   646.34869
         488           3           3   349.90072   654.60431
         488           3           4   351.21396   657.06116
         488           3           5   330.14840   617.65110
         488           4           1   336.40213   629.35076
         488           4           2   341.69895   639.26019
         488           4           3   341.14738   638.22830
         488           4           4   352.37361   659.23067
         488           4           5   331.61179   620.38885
         488           5           1   334.66189   626.09507
         488           5           2   340.45166   636.92673
         488           5           3   336.51845   629.56837
         488           5           4   353.39724   661.14570
         488           5           5   332.77155   622.55857
         489           1           1   358.62060   670.91771
         489           1           2   361.50052   676.30555
         489           1           3   374.76628   701.12350
         489           1           4   352.59234   659.63986
         489           1           5   308.04012   576.29030
         489           2           1   356.31550   666.60527
         489           2           2   360.07254   673.63404
         489           2           3   373.20844   698.20907
         489           2           4   353.27692   660.92059
         489           2           5   311.74796   583.22703
         489           3           1   352.22076   658.94470
         489           3           2   357.36431   668.56740
         489           3           3   369.58226   691.42510
         489           3           4   355.71236   665.47689
         489           3           5   319.98020   598.62815
         489           4           1   347.34864   649.82981
         489           4           2   350.89551   656.46540
         489           4           3   365.01493   682.88041
         489           4           4   357.62778   669.06031
         489           4           5   323.91518   605.98982
         489           5           1   344.72882   644.92857
         489           5           2   348.29228   651.59520
         489           5           3   362.54543   678.26039
         489           5           4   358.59452   670.86891
         489           5           5   325.89687   609.69721
         490           1           1   367.05356   686.69432
         490           1           2   365.82789   684.40132
         490           1           3   365.09044   683.02166
         490           1           4   353.21698   660.80847
         490           1           5   314.97298   589.26050
         490           2           1   367.10565   686.79178
         490           2           2   364.51890   681.95242
         490           2           3   368.23024   688.89569
         490           2           4   352.39300   659.26694
         490           2           5   312.73679   585.07695
         490           3           1   366.85108   686.31553
         490           3           2   366.03150   684.78223
         490           3           3   373.94308   699.58345
         490           3           4   351.49796   657.59246
         490           3           5   306.86816   574.09776
         490           4           1   361.60701   676.50478
         490           4           2   363.45967   679.97077
         490           4           3   374.39854   700.43554
         490           4           4   352.32419   659.13821
         490           4           5   307.50180   575.28319
         490           5           1   358.62060   670.91771
         490           5           2   361.50052   676.30555
         490           5           3   374.76628   701.12350
         490           5           4   352.59234   659.63986
         490           5           5   308.04012   576.29030
         491           1           1   359.05442   671.72932
         491           1           2   357.51556   668.85036
         491           1           3   343.88066   643.34180
         491           1           4   347.18985   649.53273
         491           1           5   330.79928   618.86878
         491           2           1   360.42868   674.30032
         491           2           2   358.84520   671.33790
         491           2           3   347.55561   650.21701
         491           2           4   348.32080   651.64855
         491           2           5   327.26108   612.24941
         491           3           1   362.84548   678.82174
         491           3           2   361.69695   676.67303
         491           3           3   353.56414   661.45794
         491           3           4   349.75134   654.32483
         491           3           5   321.03084   600.59371
         491           4           1   365.59474   683.96513
         491           4           2   364.94679   682.75292
         491           4           3   360.99871   675.36674
         491           4           4   352.72162   659.88173
         491           4           5   316.97043   592.99738
         491           5           1   367.05356   686.69432
         491           5           2   365.82789   684.40132
         491           5           3   365.09044   683.02166
         491           5           4   353.21698   660.80847
         491           5           5   314.97298   589.26050
         492           1           1   346.29581   647.86014
         492           1           2   342.28984   640.36566
         492           1           3   331.93097   620.98598
         492           1           4   359.58990   672.73111
         492           1           5   343.53674   642.69840
         492           2           1   347.74430   650.57002
         492           2           2   344.99257   645.42200
         492           2           3   334.05745   624.96426
         492           2           4   356.09533   666.19336
         492           2           5   341.96447   639.75695
         492           3           1   350.49013   655.70698
         492           3           2   349.74891   654.32030
         492           3           3   338.16396   632.64683
         492           3           4   350.80264   656.29164
         492           3           5   338.51398   633.30166
         492           4           1   356.08138   666.16725
         492           4           2   355.25806   664.62696
         492           4           3   341.76532   639.38436
         492           4           4   348.25089   651.51775
         492           4           5   333.54458   624.00476
         492           5           1   359.05442   671.72932
         492           5           2   357.51556   668.85036
         492           5           3   343.88066   643.34180
         492           5           4   347.18985   649.53273
         492           5           5   330.79928   618.86878
         493           1           1   205.02956   383.57518
         493           1           2   213.89943   400.16918
         493           1           3   278.72889   521.45401
         493           1           4   358.59178   670.86378
         493           1           5   393.11853   735.45742
         493           2           1   202.50927   378.86016
         493           2           2   213.70554   399.80646
         493           2           3   282.22477   527.99420
         493           2           4   359.18844   671.98004
         493           2           5   392.12944   733.60700
         493           3           1   200.11983   374.38992
         493           3           2   213.82624   400.03226
         493           3           3   286.44095   535.88194
         493           3           4   358.86499   671.37491
         493           3           5   387.19122   724.36844
         493           4           1   198.33305   371.04717
         493           4           2   211.26282   395.23655
         493           4           3   289.80292   542.17161
         493           4           4   359.56307   672.68091
         493           4           5   381.89692   714.46371
         493           5           1   197.31850   369.14911
         493           5           2   210.58827   393.97457
         493           5           3   290.05384   542.64105
         493           5           4   359.67786   672.89567
         493           5           5   379.56282   710.09701
         494           1           1   197.31850   369.14911
         494           1           2   210.58827   393.97457
         494           1           3   290.05384   542.64105
         494           1           4   359.67786   672.89567
         494           1           5   379.56282   710.09701
         494           2           1   196.30395   367.25106
         494           2           2   209.63337   392.18811
         494           2           3   290.30476   543.11048
         494           2           4   359.59416   672.73907
         494           2           5   377.22872   705.73032
         494           3           1   195.79193   366.29315
         494           3           2   207.24761   387.72477
         494           3           3   290.84885   544.12837
         494           3           4   358.86851   671.38151
         494           3           5   373.43267   698.62855
         494           4           1   195.92408   366.54038
         494           4           2   202.70633   379.22882
         494           4           3   290.29022   543.08328
         494           4           4   359.30122   672.19103
         494           4           5   370.38958   692.93545
         494           5           1   196.36162   367.35895
         494           5           2   200.31250   374.75037
         494           5           3   288.14629   539.07236
         494           5           4   358.69328   671.05368
         494           5           5   367.54884   687.62092
         495           1           1   393.11853   735.45742
         495           1           2   402.81364   753.59531
         495           1           3   448.29412   838.68151
         495           1           4   421.29256   788.16621
         495           1           5   401.10777   750.40393
         495           2           1   392.12944   733.60700
         495           2           2   403.49672   754.87324
         495           2           3   448.45385   838.98032
         495           2           4   416.64270   779.46711
         495           2           5   396.81005   742.36363
         495           3           1   387.19122   724.36844
         495           3           2   402.59891   753.19359
         495           3           3   451.02148   843.78393
         495           3           4   407.57195   762.49731
         495           3           5   389.34003   728.38850
         495           4           1   381.89692   714.46371
         495           4           2   402.43648   752.88971
         495           4           3   450.39212   842.60651
         495           4           4   400.60853   749.46994
         495           4           5   382.93860   716.41251
         495           5           1   379.56282   710.09701
         495           5           2   402.91155   753.77849
         495           5           3   447.95912   838.05478
         495           5           4   401.13569   750.45616
         495           5           5   380.75601   712.32928
         496           1           1   379.56282   710.09701
         496           1           2   402.91155   753.77849
         496           1           3   447.95912   838.05478
         496           1           4   401.13569   750.45616
         496           1           5   380.75601   712.32928
         496           2           1   377.22872   705.73032
         496           2           2   403.85592   755.54525
         496           2           3   445.52612   833.50305
         496           2           4   401.66285   751.44238
         496           2           5   378.99530   709.03528
         496           3           1   373.43267   698.62855
         496           3           2   404.46881   756.69185
         496           3           3   437.03279   817.61349
         496           3           4   399.31086   747.04222
         496           3           5   376.88288   705.08331
         496           4           1   370.38958   692.93545
         496           4           2   403.11352   754.15634
         496           4           3   428.00349   800.72120
         496           4           4   394.76990   738.54686
         496           4           5   372.96093   697.74600
         496           5           1   367.54884   687.62092
         496           5           2   400.97143   750.14886
         496           5           3   423.76287   792.78774
         496           5           4   391.62584   732.66486
         496           5           5   372.63437   697.13508
         497           1           1   401.10777   750.40393
         497           1           2   386.16891   722.45588
         497           1           3   341.72790   639.31437
         497           1           4   285.26594   533.68371
         497           1           5   267.73690   500.88987
         497           2           1   396.81005   742.36363
         497           2           2   382.22233   715.07250
         497           2           3   339.42739   635.01051
         497           2           4   281.70840   527.02817
         497           2           5   264.13798   494.15691
         497           3           1   389.34003   728.38850
         497           3           2   374.21744   700.09671
         497           3           3   332.98845   622.96435
         497           3           4   275.97757   516.30676
         497           3           5   260.63770   487.60849
         497           4           1   382.93860   716.41251
         497           4           2   369.80913   691.84953
         497           4           3   326.23946   610.33813
         497           4           4   270.53783   506.12994
         497           4           5   258.96108   484.47181
         497           5           1   380.75601   712.32928
         497           5           2   366.77648   686.17597
         497           5           3   321.35478   601.19975
         497           5           4   267.65057   500.72836
         497           5           5   259.64796   485.75685
         498           1           1   380.75601   712.32928
         498           1           2   366.77648   686.17597
         498           1           3   321.35478   601.19975
         498           1           4   267.65057   500.72836
         498           1           5   259.64796   485.75685
         498           2           1   378.99530   709.03528
         498           2           2   364.09260   681.15489
         498           2           3   316.72562   592.53937
         498           2           4   264.76330   495.32678
         498           2           5   258.71262   484.00700
         498           3           1   376.88288   705.08331
         498           3           2   361.86965   676.99613
         498           3           3   305.01803   570.63648
         498           3           4   263.03507   492.09356
         498           3           5   258.38479   483.39368
         498           4           1   372.96093   697.74600
         498           4           2   360.27023   674.00388
         498           4           3   293.08324   548.30854
         498           4           4   263.35809   492.69788
         498           4           5   260.49888   487.34878
         498           5           1   372.63437   697.13508
         498           5           2   357.35970   668.55878
         498           5           3   288.93798   540.55346
         498           5           4   265.59060   496.87452
         498           5           5   261.67499   489.54908
         499           1           1   267.73690   500.88987
         499           1           2   264.28480   494.43158
         499           1           3   258.11464   482.88828
         499           1           4   250.61327   468.85450
         499           1           5   243.60548   455.74412
         499           2           1   264.13798   494.15691
         499           2           2   263.48032   492.92654
         499           2           3   256.35603   479.59821
         499           2           4   251.57671   470.65692
         499           2           5   242.93036   454.48109
         499           3           1   260.63770   487.60849
         499           3           2   264.29610   494.45272
         499           3           3   252.57928   472.53256
         499           3           4   251.89259   471.24788
         499           3           5   240.88993   450.66380
         499           4           1   258.96108   484.47181
         499           4           2   266.03445   497.70488
         499           4           3   248.95064   465.74400
         499           4           4   251.61796   470.73410
         499           4           5   240.06030   449.11169
         499           5           1   259.64796   485.75685
         499           5           2   265.71299   497.10349
         499           5           3   247.97956   463.92727
         499           5           4   253.28621   473.85512
         499           5           5   239.16922   447.44464
         500           1           1   259.64796   485.75685
         500           1           2   265.71299   497.10349
         500           1           3   247.97956   463.92727
         500           1           4   253.28621   473.85512
         500           1           5   239.16922   447.44464
         500           2           1   258.71262   484.00700
         500           2           2   265.88634   497.42779
         500           2           3   247.39000   462.82430
         500           2           4   254.95447   476.97613
         500           2           5   235.68474   440.92577
         500           3           1   258.38479   483.39368
         500           3           2   266.38583   498.36225
         500           3           3   244.79398   457.96761
         500           3           4   256.31237   479.51654
         500           3           5   228.57997   427.63396
         500           4           1   260.49888   487.34878
         500           4           2   266.56218   498.69218
         500           4           3   245.76173   459.77810
         500           4           4   256.90025   480.61637
         500           4           5   225.92750   422.67165
         500           5           1   261.67499   489.54908
         500           5           2   267.76247   500.93772
         500           5           3   245.47311   459.23813
         500           5           4   256.02832   478.98513
         500           5           5   224.34903   419.71860
         501           1           1   243.60548   455.74412
         501           1           2   236.49006   442.43238
         501           1           3   202.31340   378.49371
         501           1           4   182.25626   340.97024
         501           1           5   196.99826   368.54999
         501           2           1   242.93036   454.48109
         501           2           2   235.70065   440.95554
         501           2           3   202.13233   378.15496
         501           2           4   176.80967   330.78060
         501           2           5   191.21370   357.72807
         501           3           1   240.88993   450.66380
         501           3           2   233.62127   437.06537
         501           3           3   204.32715   382.26110
         501           3           4   168.59033   315.40363
         501           3           5   182.74957   341.89315
         501           4           1   240.06030   449.11169
         501           4           2   229.68695   429.70494
         501           4           3   205.10705   383.72016
         501           4           4   164.10263   307.00790
         501           4           5   174.84942   327.11331
         501           5           1   239.16922   447.44464
         501           5           2   228.70955   427.87639
         501           5           3   205.72795   384.88175
         501           5           4   164.08563   306.97610
         501           5           5   171.57673   320.99067
         502           1           1   239.16922   447.44464
         502           1           2   228.70955   427.87639
         502           1           3   205.72795   384.88175
         502           1           4   164.08563   306.97610
         502           1           5   171.57673   320.99067
         502           2           1   235.68474   440.92577
         502           2           2   228.05009   426.64265
         502           2           3   204.97850   383.47965
         502           2           4   163.93624   306.69663
         502           2           5   169.05797   316.27851
         502           3           1   228.57997   427.63396
         502           3           2   226.75298   424.21598
         502           3           3   202.17913   378.24252
         502           3           4   163.49194   305.86542
         502           3           5   170.28191   318.56829
         502           4           1   225.92750   422.67165
         502           4           2   225.17302   421.26015
         502           4           3   195.65383   366.03479
         502           4           4   163.46823   305.82105
         502           4           5   169.56591   317.22877
         502           5           1   224.34903   419.71860
         502           5           2   223.01638   417.22544
         502           5           3   192.16095   359.50021
         502           5           4   163.15943   305.24334
         502           5           5   168.90362   315.98973
         503           1           1   196.99826   368.54999
         503           1           2   181.61588   339.77220
         503           1           3   171.98556   321.75553
         503           1           4   202.47140   378.78931
         503           1           5   219.92707   411.44587
         503           2           1   191.21370   357.72807
         503           2           2   178.90609   334.70265
         503           2           3   174.21858   325.93312
         503           2           4   203.64718   380.98898
         503           2           5   220.86240   413.19572
         503           3           1   182.74957   341.89315
         503           3           2   178.28664   333.54376
         503           3           3   179.50253   335.81849
         503           3           4   206.27915   385.91296
         503           3           5   222.71370   416.65918
         503           4           1   174.84942   327.11331
         503           4           2   181.54474   339.63910
         503           4           3   189.82161   355.12371
         503           4           4   209.22971   391.43295
         503           4           5   221.51157   414.41020
         503           5           1   171.57673   320.99067
         503           5           2   183.11889   342.58407
         503           5           3   195.39283   365.54651
         503           5           4   208.93973   390.89044
         503           5           5   221.68561   414.73580
         504           1           1   171.57673   320.99067
         504           1           2   183.11889   342.58407
         504           1           3   195.39283   365.54651
         504           1           4   208.93973   390.89044
         504           1           5   221.68561   414.73580
         504           2           1   169.05797   316.27851
         504           2           2   184.23529   344.67267
         504           2           3   198.53403   371.42317
         504           2           4   209.83158   392.55894
         504           2           5   222.26292   415.81585
         504           3           1   170.28191   318.56829
         504           3           2   188.86050   353.32564
         504           3           3   205.86637   385.14072
         504           3           4   209.10144   391.19296
         504           3           5   218.19691   408.20904
         504           4           1   169.56591   317.22877
         504           4           2   192.45565   360.05156
         504           4           3   210.21015   393.26718
         504           4           4   206.06763   385.51723
         504           4           5   219.82586   411.25653
         504           5           1   168.90362   315.98973
         504           5           2   194.16708   363.25335
         504           5           3   210.29904   393.43348
         504           5           4   206.15998   385.69001
         504           5           5   220.47209   412.46552
         505           1           1   219.92707   411.44587
         505           1           2   231.97397   433.98355
         505           1           3   212.12146   396.84292
         505           1           4   194.65925   364.17410
         505           1           5   176.49013   330.18279
         505           2           1   220.86240   413.19572
         505           2           2   231.28931   432.70269
         505           2           3   210.96414   394.67778
         505           2           4   190.25583   355.93606
         505           2           5   173.17277   323.97659
         505           3           1   222.71370   416.65918
         505           3           2   224.87715   420.70662
         505           3           3   211.91425   396.45527
         505           3           4   184.50571   345.17857
         505           3           5   166.18262   310.89921
         505           4           1   221.51157   414.41020
         505           4           2   218.85708   409.44411
         505           4           3   212.61487   397.76600
         505           4           4   181.28390   339.15113
         505           4           5   163.30194   305.50995
         505           5           1   221.68561   414.73580
         505           5           2   217.29805   406.52742
         505           5           3   214.51955   401.32934
         505           5           4   180.57772   337.82998
         505           5           5   164.31789   307.41062
         506           1           1   221.68561   414.73580
         506           1           2   217.29805   406.52742
         506           1           3   214.51955   401.32934
         506           1           4   180.57772   337.82998
         506           1           5   164.31789   307.41062
         506           2           1   222.26292   415.81585
         506           2           2   215.73901   403.61073
         506           2           3   214.78473   401.82544
         506           2           4   180.89963   338.43223
         506           2           5   164.69663   308.11918
         506           3           1   218.19691   408.20904
         506           3           2   215.21630   402.63283
         506           3           3   217.70222   407.28357
         506           3           4   183.50743   343.31097
         506           3           5   168.75113   315.70446
         506           4           1   219.82586   411.25653
         506           4           2   217.00441   405.97807
         506           4           3   222.18812   415.67591
         506           4           4   182.89016   342.15616
         506           4           5   174.55787   326.56787
         506           5           1   220.47209   412.46552
         506           5           2   219.86190   411.32394
         506           5           3   224.29848   419.62403
         506           5           4   184.72603   345.59075
         506           5           5   175.35720   328.06328
